9
ethanol parent 0 Properties=species:S:1:pos:R:3 pbc="F F F"
C     -0.23614507    -0.48406480    -0.03915515
C     -0.95046644     0.77093643     0.52302617
O      1.07489421    -0.29931330    -0.48710465
H     -0.31705972    -1.26705327     0.74966478
H     -0.92669221    -0.84096080    -0.91455045
H     -1.70204168     0.47567217     1.23429522
H     -0.21176082     1.43436343     1.00113665
H     -1.35766460     1.34195357    -0.30271140
H      1.59180633     0.18724692     0.19830645
9
ethanol strain 0.9 parent=0
C     -0.24625423    -0.42100520    -0.01342955
C     -0.88914346     0.70849590     0.49253364
O      0.93368112    -0.25472886    -0.41658410
H     -0.31907741    -1.12569483     0.69650839
H     -0.86774666    -0.74221160    -0.80128532
H     -1.56556118     0.44275807     1.13267578
H     -0.22430840     1.30558020     0.92283307
H     -1.25562181     1.22241133    -0.25063018
H      1.39890203     0.18317534     0.20028589
9
ethanol strain 1.1 parent=0
C     -0.22603591    -0.54712439    -0.06488075
C     -1.01178942     0.83337696     0.55351870
O      1.21610730    -0.34389775    -0.55762520
H     -0.31504203    -1.40841171     0.80282117
H     -0.98563776    -0.93970999    -1.02781558
H     -1.83852218     0.50858627     1.33591466
H     -0.19921324     1.56314666     1.07944023
H     -1.45970739     1.46149581    -0.35479262
H      1.78471063     0.19131850     0.19632701
9
ethanol noise sigma=0.12 parent=0
C      0.02425334    -0.61702224    -0.00004733
C     -0.98182462     0.66542358     0.45416498
O      1.01261435    -0.31122952    -0.44072105
H     -0.19547225    -1.24312602     0.87970304
H     -0.87648590    -0.83308424    -0.94575472
H     -1.82360027     0.28093815     1.21880443
H     -0.23789667     1.46636501     1.03418602
H     -1.51426684     1.25054284    -0.44266046
H      1.70381126     0.16641661     0.20537922
9
ethanol noise sigma=0.12 parent=0
C     -0.35102105    -0.64269178    -0.11630636
C     -0.97046644     0.81764315     0.33464238
O      1.10586509    -0.40940456    -0.55756373
H     -0.36466766    -1.32638479     0.79570802
H     -0.83113078    -0.80911786    -0.98704098
H     -1.66086827     0.51165136     1.32778034
H     -0.18842473     1.23477840     0.90285991
H     -1.41371411     1.44269709    -0.32721299
H      1.69115197     0.21336040     0.04913956
9
ethanol noise sigma=0.12 parent=0
C     -0.23916534    -0.42701885     0.00049547
C     -1.13430418     0.81286236     0.44510759
O      0.81692526    -0.37510292    -0.72882790
H     -0.47626812    -1.10512844     1.03255615
H     -0.80979459    -0.79811031    -0.69835354
H     -1.67007559     0.35122206     0.93541230
H     -0.11271166     1.15904700     0.65396339
H     -1.44354660     1.34126853    -0.41332636
H      1.70703898     0.16854371     0.21492901
9
ethanol noise sigma=0.12 parent=0
C     -0.19146506    -0.56166554    -0.02229902
C     -0.68153944     0.65169771     0.53493567
O      1.12971096    -0.37128349    -0.50035156
H     -0.52853851    -1.32655065     0.74724823
H     -0.80111590    -0.73524409    -0.99047868
H     -1.84150345     0.68718155     1.33368520
H     -0.44645380     1.38716646     0.88669647
H     -1.43679731     1.13043565    -0.35937510
H      1.52373759     0.15268835     0.31655538
9
ethanol noise sigma=0.12 parent=0
C     -0.21536140    -0.63579639    -0.25280466
C     -1.01979262     0.90258874     0.62979088
O      0.99877514    -0.16586686    -0.44077582
H     -0.39500636    -1.22074117     0.73510394
H     -1.06537796    -0.89791821    -0.90014033
H     -1.54877015     0.34674860     1.25827892
H     -0.21386586     1.42390770     0.85020186
H     -1.21080317     1.49352509    -0.11506249
H      1.64396493     0.36101922     0.25915845
9
ethanol noise sigma=0.12 parent=0
C     -0.12004441    -0.52788573    -0.01597087
C     -0.99320740     0.64049111     0.46717822
O      0.93636324    -0.43702618    -0.53753721
H     -0.39302997    -1.02172452     0.95986381
H     -0.79988895    -0.74884395    -1.02109178
H     -1.67179149     0.29872659     1.15558586
H     -0.27287234     1.38721286     1.10191324
H     -1.45558148     1.62988175    -0.36718604
H      1.69162278    -0.00610085     0.30529829
9
ethanol noise sigma=0.12 parent=0
C     -0.38709973    -0.46283114    -0.04249111
C     -0.85365380     0.84210990     0.56762420
O      1.05444128    -0.06552274    -0.54513876
H     -0.31796041    -1.32631617     0.76380481
H     -1.04534303    -0.89321707    -0.85606432
H     -1.77431147     0.52927258     1.16135466
H     -0.04259401     1.41580989     1.21107980
H     -1.29997589     1.32369212    -0.19036899
H      1.73019509     0.36936982     0.36395206
9
ethanol noise sigma=0.12 parent=0
C     -0.13047634    -0.62759680     0.07113600
C     -0.96341742     0.81762438     0.67375980
O      0.98596769    -0.14067905    -0.19990847
H     -0.25225708    -1.30714750     0.91337907
H     -0.90695028    -0.71605153    -0.76518918
H     -1.88701565     0.51231401     1.04783144
H     -0.29920566     1.50531047     0.85428466
H     -1.44730442     1.28395564    -0.26752296
H      1.63126270     0.23799822     0.13450282
9
ethanol noise sigma=0.2 parent=0
C     -0.39245163    -0.40634837    -0.21954029
C     -1.11909219     0.90638609     0.35726930
O      0.88719557    -0.07787733    -0.50198556
H     -0.77257868    -1.42508810     1.13577967
H     -0.36216415    -0.90711670    -0.77993742
H     -1.56013815     0.53230503     0.86142362
H     -0.01738373     1.48364092     0.94664684
H     -1.69027331     1.20775517    -0.33278957
H      1.53390791     0.22564059     0.11360303
9
ethanol noise sigma=0.2 parent=0
C     -0.04268608    -0.36601400    -0.27845023
C     -1.07950673     0.84794644     0.40414987
O      1.34828695    -0.41546334    -0.44566571
H     -0.20299382    -1.50276104     0.99250240
H     -0.97695097    -0.99216238    -1.06212479
H     -2.05046240     0.19370723     1.52642418
H     -0.24626198     1.36920446     1.03167854
H     -1.25065106     1.17379158    -0.35342842
H      1.63798572     0.38172127     0.24065983
9
ethanol noise sigma=0.2 parent=0
C      0.08826935    -0.53601226    -0.11522084
C     -1.23774890     0.75352641     0.64333253
O      1.01689102    -0.34277986    -0.69164163
H     -0.44342161    -1.36517381     0.72282315
H     -0.72036306    -0.74764427    -0.73979943
H     -1.47506567     0.37391785     1.49350270
H     -0.21139977     1.16123175     0.87113411
H     -1.38380678     1.02520280     0.14985598
H      1.57276257     0.34972776    -0.05279537
9
ethanol noise sigma=0.2 parent=0
C     -0.22554291    -0.44169935    -0.20101114
C     -0.90921263     0.76112209     0.58819489
O      0.82345787    -0.20555284    -0.55418307
H     -0.49784414    -1.71720430     0.70104155
H     -1.01138779    -0.37613557    -1.16654420
H     -1.41445761     0.71603982     1.30663370
H     -0.17238883     1.52410547     0.69493469
H     -1.08506479     1.26680251    -0.46166697
H      1.58010187    -0.37366140    -0.07803474
9
ethanol noise sigma=0.2 parent=0
C     -0.48300214    -0.80928231     0.06652046
C     -0.64214086     0.76217597     0.44685230
O      1.12803360    -0.41187391    -0.47262013
H     -0.24746458    -1.32485260     0.65511807
H     -0.92490647    -0.84123561    -0.79132161
H     -2.01621829     0.23943268     1.12439592
H     -0.12729612     1.16271385     1.22983076
H     -1.08343398     1.18113239    -0.09233719
H      1.16011259     0.15345023    -0.13824604
9
ethanol noise sigma=0.2 parent=0
C     -0.03527945    -0.32931490     0.04822054
C     -1.08216893     0.52930917     0.59054723
O      0.95620396    -0.18029015    -0.82304446
H     -0.24865453    -1.18120051     0.27752022
H     -1.19910346    -1.00063082    -1.05307215
H     -2.06594094     0.45996308     0.98860970
H     -0.24639133     1.04792057     0.74455577
H     -1.23860753     0.97862579    -0.33023635
H      1.86120438     0.32832931    -0.08701456
9
ethanol noise sigma=0.2 parent=0
C      0.18795376    -0.61653144     0.12652526
C     -0.77922127     0.68602731     0.62865387
O      0.50145843    -0.30219573    -0.47663542
H     -0.40784608    -1.26431292     0.94179018
H     -0.76013719    -0.98752097    -0.77844416
H     -1.48899117     0.47664676     1.29021007
H     -0.72365586     1.09733859     1.05406923
H     -1.67985171     1.48948526    -0.09241452
H      1.37171952    -0.06856686     0.13578286
9
ethanol noise sigma=0.2 parent=0
C     -0.21439032    -0.34286873    -0.10809829
C     -0.96670788     0.54809705     0.55614613
O      0.89637406    -0.12259284    -0.37108156
H     -0.66900089    -1.22263123     0.50585077
H     -0.75819310    -1.07255950    -0.68673250
H     -1.51325850     0.84176768     1.27546145
H     -0.22675990     1.65286476     0.73153214
H     -1.39083372     1.25332561    -0.33966150
H      1.25005678    -0.17394724    -0.16873394
9
ethanol parent 1 Properties=species:S:1:pos:R:3 pbc="F F F"
C     -0.39622603     0.29966510    -0.26796001
C     -0.50038139     0.01449007     1.21902799
O      0.78864562    -0.29180021    -0.91446818
H     -1.15752329    -0.26587890    -0.81800682
H     -0.38686354     1.40995106    -0.49727795
H     -1.29066693     0.61877030     1.67971268
H     -0.80745987    -1.04057132     1.20118673
H      0.38660564     0.21823409     1.83567868
H      1.42051002    -0.05365409    -0.21861366
9
ethanol strain 0.9 parent=1
C     -0.37819631     0.27980088    -0.20539424
C     -0.47193614     0.02314335     1.13289496
O      0.68818817    -0.25251790    -0.78725159
H     -1.06336385    -0.22918872    -0.70043637
H     -0.36977007     1.27905824    -0.41178038
H     -1.18319312     0.56699556     1.54751118
H     -0.74830677    -0.92641190     1.11683783
H      0.32635219     0.20651297     1.68788058
H      1.25686613    -0.03818639    -0.16098252
9
ethanol strain 1.1 parent=1
C     -0.41425575     0.31952932    -0.33052578
C     -0.52882664     0.00583679     1.30516102
O      0.88910307    -0.33108252    -1.04168477
H     -1.25168273    -0.30256908    -0.93557727
H     -0.40395701     1.54084388    -0.58277552
H     -1.39814074     0.67054504     1.81191418
H     -0.86661297    -1.15473074     1.28553563
H      0.44685909     0.22995521     1.98347678
H      1.58415391    -0.06912179    -0.27624480
9
ethanol noise sigma=0.12 parent=1
C     -0.23553708     0.24402875    -0.20837923
C     -0.53072883    -0.02956159     1.35972172
O      0.49506727    -0.33391520    -1.02431622
H     -1.28361560    -0.47535877    -1.01789180
H     -0.54638513     1.52521167    -0.59572417
H     -1.36233980     0.58198740     1.73846902
H     -0.69911889    -1.03313510     1.18586230
H      0.43356088     0.10713571     1.84584351
H      1.60731244    -0.14735385    -0.33687005
9
ethanol noise sigma=0.12 parent=1
C     -0.59642607     0.29045345    -0.20900905
C     -0.56691637    -0.04033814     1.34471476
O      0.77680409    -0.22377794    -0.97358986
H     -1.01738471    -0.17226746    -0.85041334
H     -0.47327796     1.69916937    -0.64054238
H     -1.42071899     0.30611863     1.74728659
H     -0.81463511    -1.06502483     1.00404063
H      0.37418817     0.10963929     1.68174145
H      1.37754594    -0.03073363    -0.25017995
9
ethanol noise sigma=0.12 parent=1
C     -0.47011506     0.37336127    -0.25253247
C     -0.55811573     0.06951493     1.24149256
O      0.88430872    -0.20635474    -0.83976356
H     -1.24151305    -0.12208364    -0.71194013
H     -0.46437568     1.54551224    -0.49925199
H     -1.42304490     0.60127814     1.51379930
H     -0.68604848    -1.20379995     1.36285530
H      0.27099949     0.18963791     1.97500169
H      1.44984480    -0.26189210    -0.24705128
9
ethanol noise sigma=0.12 parent=1
C     -0.62541767     0.36728828    -0.40158826
C     -0.52318534    -0.01325663     1.02766059
O      0.81593794    -0.09231001    -1.03497705
H     -1.23797289    -0.23361878    -0.68586522
H     -0.50253453     1.42188695    -0.46622821
H     -1.17728880     0.50966123     1.96085072
H     -0.57645596    -1.21325936     1.09574880
H      0.41862803     0.13170316     1.76263290
H      1.41016615    -0.15113426    -0.30179651
9
ethanol noise sigma=0.12 parent=1
C     -0.38141854     0.24200058    -0.23522115
C     -0.38625797     0.13707616     1.22023875
O      1.02249353    -0.34783927    -0.81806108
H     -0.95250681    -0.25203513    -0.73026666
H     -0.45186233     1.33375931    -0.48197069
H     -1.24225356     0.65361178     1.75001716
H     -0.77757379    -1.05904843     1.12092915
H      0.36591637     0.21650241     1.82651396
H      1.28485069     0.08825328    -0.09671149
9
ethanol noise sigma=0.12 parent=1
C     -0.37620889     0.23622163    -0.14532098
C     -0.53421075    -0.02093152     1.28240563
O      0.71759293    -0.28294329    -0.97794319
H     -1.09207334    -0.22210379    -0.73972552
H     -0.34131523     1.44259795    -0.45803923
H     -1.20279225     0.50075449     1.53676643
H     -0.80435055    -1.02691485     1.16702587
H      0.55719909     0.26820601     1.97799071
H      1.42679104    -0.21888780    -0.38365720
9
ethanol noise sigma=0.12 parent=1
C     -0.27454839     0.30017450    -0.32887877
C     -0.35449074     0.21116038     1.26042359
O      0.93452139    -0.33220967    -1.02894890
H     -1.35452206    -0.14251180    -1.00257634
H     -0.43809246     1.41406866    -0.43357472
H     -1.51291516     0.58712171     1.58031731
H     -0.64195250    -1.06683185     1.12065537
H      0.58136978     0.23264500     1.92356132
H      1.45399150    -0.07633210    -0.13614362
9
ethanol noise sigma=0.12 parent=1
C     -0.48429203     0.13427119    -0.34837107
C     -0.43117125    -0.03409977     1.33897953
O      0.86791155    -0.27137511    -0.79006075
H     -1.11741505    -0.23259935    -0.85367791
H     -0.40296509     1.39756523    -0.37897072
H     -1.11100686     0.74079562     1.70469245
H     -0.82523666    -1.01447619     1.13125744
H      0.38116175     0.17613014     1.82779251
H      1.14201981    -0.05775711    -0.14665007
9
ethanol noise sigma=0.2 parent=1
C     -0.60967335     0.63376920    -0.24594599
C     -0.61506238     0.28195978     1.02939785
O      1.30602176    -0.43457566    -0.73896186
H     -0.88690021    -0.13691073    -0.79801768
H     -0.52880540     1.37684887    -0.46000331
H     -1.10618340     0.18605036     1.79246827
H     -1.02987363    -1.16508346     1.17638951
H      0.25978826     0.32975072     1.51526597
H      1.50648313    -0.25479832    -0.29477838
9
ethanol noise sigma=0.2 parent=1
C     -0.41671816     0.02205000    -0.19385641
C     -0.09563127    -0.11722308     1.04031859
O      1.07328465     0.02349699    -1.31541429
H     -1.23312958    -0.42795923    -0.79262790
H     -0.41270399     1.20819423    -0.58839416
H     -1.08426818     0.43155729     1.71645798
H     -0.69289839    -0.71500906     1.27623876
H      0.42669703     0.02906333     1.87775072
H      1.67241330     0.02850246     0.01179262
9
ethanol noise sigma=0.2 parent=1
C     -0.49350141     0.44555702    -0.32264811
C     -0.64139733    -0.11166821     1.44370047
O      0.89520132    -0.33256986    -0.96992920
H     -1.00788864    -0.35773222    -0.60571220
H     -0.33280642     1.29560133    -0.53873762
H     -1.49930636     0.40614562     1.57641836
H     -0.90784590    -1.11639638     1.04992046
H      0.25145875     0.27544333     1.57264799
H      0.92670399     0.26879940    -0.20424984
9
ethanol noise sigma=0.2 parent=1
C     -0.36617065     0.51851523    -0.05406367
C     -0.22709723     0.19247256     1.36185043
O      0.87714876    -0.32128123    -0.94295499
H     -1.85553258     0.04732939    -0.84550830
H     -0.58355533     1.62771903    -0.63851551
H     -1.22211536     0.44845453     1.45114049
H     -0.59719031    -1.01952194     0.89470346
H      0.50922437     0.38774571     1.77534757
H      1.55250270     0.19374754     0.00305271
9
ethanol noise sigma=0.2 parent=1
C     -0.27847672     0.44480227     0.04227627
C     -0.46362781    -0.04242433     1.16187133
O      1.40796707    -0.49230524    -0.91440810
H     -1.51958943    -0.27802457    -0.85842992
H     -0.40813474     1.55544717    -0.21466145
H     -1.25202963     0.45940795     1.57687462
H     -0.80904818    -1.18669493     1.18217483
H      0.48365204     0.25439993     2.22411253
H      1.09441830    -0.03315962    -0.01873831
9
ethanol noise sigma=0.2 parent=1
C     -0.61502450    -0.03666169     0.13257329
C     -0.31950011     0.11406931     1.44624008
O      0.58844465    -0.51897070    -0.61642516
H     -1.14167978    -0.58613841    -0.84923244
H     -0.08656279     1.19637201    -0.81508372
H     -1.74952249     0.58145896     1.65412436
H     -0.94218465    -1.15707547     1.13865304
H      0.25524300     0.09880352     2.01872525
H      1.41814856     0.04050115    -0.58702740
9
ethanol noise sigma=0.2 parent=1
C     -0.58292730     0.49013074    -0.24698551
C     -0.30749370    -0.27814253     1.33660661
O      0.67034642    -0.29789288    -1.05735907
H     -1.35154594    -0.48039566    -0.85219107
H     -0.19164989     1.19347595    -0.62166514
H     -1.49114637     0.44661488     1.80186959
H     -0.90027820    -1.23414879     1.32918905
H      0.44633890     0.27815849     1.85660864
H      1.29702718     0.09704612    -0.34766169
9
ethanol noise sigma=0.2 parent=1
C     -0.35998019     0.32281467    -0.05145815
C     -0.53947095     0.16501766     0.87981140
O      0.80655735    -0.26108234    -0.90214225
H     -1.55896624    -0.12967645    -0.94675684
H     -0.52736750     1.70697349    -0.54862069
H     -1.11527719     0.27677896     1.80750411
H     -0.77564083    -0.98996185     1.00847784
H      0.44888519     0.17316495     2.09322086
H      1.31465241    -0.37312629    -0.01985378
9
ethanol parent 2 Properties=species:S:1:pos:R:3 pbc="F F F"
C     -0.34465478     0.13113282     0.28825483
C      0.11072826     1.27039547    -0.66676676
O      0.23974657    -1.25861158     0.37324155
H     -0.05844532     0.41496646     1.41851336
H     -1.40302831    -0.06783420     0.22858188
H      1.15732839     1.63590488    -0.40921920
H      0.05872233     1.04110730    -1.72606411
H     -0.60762968     2.16249936    -0.64154600
H     -0.16603296    -1.91047446    -0.28448465
9
ethanol strain 0.9 parent=2
C     -0.32144781     0.15600938     0.24365725
C      0.08839693     1.18134577    -0.61586219
O      0.20451341    -1.09476058     0.32014529
H     -0.06385929     0.41145966     1.26088992
H     -1.27398398    -0.02306094     0.18995159
H      1.03033705     1.51030424    -0.38406938
H      0.04159159     0.97498641    -1.56922980
H     -0.55812522     1.98423927    -0.59316350
H     -0.16068817    -1.68143717    -0.27180829
9
ethanol strain 1.1 parent=2
C     -0.36786175     0.10625626     0.33285241
C      0.13305959     1.35944517    -0.71767133
O      0.27497973    -1.42246258     0.42633781
H     -0.05303135     0.41847326     1.57613680
H     -1.53207264    -0.11260747     0.26721217
H      1.28431973     1.76150552    -0.43436902
H      0.07585307     1.10722818    -1.88289842
H     -0.65713414     2.34075945    -0.68992850
H     -0.17137775    -2.13951175    -0.29716101
9
ethanol noise sigma=0.12 parent=2
C     -0.47446984     0.10168516     0.37252093
C      0.30314888     1.33190439    -0.58617987
O      0.25796180    -1.24735468     0.36270498
H     -0.02387082     0.30625568     1.43980469
H     -1.26989314    -0.05263852     0.20884466
H      1.24215084     1.53157412    -0.43681250
H      0.32010951     1.13420631    -1.63922219
H     -0.62325631     2.07663423    -0.77555427
H     -0.16470368    -1.76130688    -0.29377385
9
ethanol noise sigma=0.12 parent=2
C     -0.24881973     0.09624004     0.29877013
C      0.15385896     1.61216903    -0.65315547
O      0.13291991    -1.15146638     0.37100913
H      0.00445060     0.32978174     1.52207405
H     -1.48427732    -0.02270869     0.18163956
H      1.07041734     1.70383930    -0.36163159
H     -0.17688070     1.12229814    -1.63328933
H     -0.58692883     2.20165538    -0.60941156
H     -0.13175619    -1.95117433    -0.16377670
9
ethanol noise sigma=0.12 parent=2
C     -0.20071937     0.03277383     0.29553617
C      0.00346147     1.21653105    -0.55544451
O      0.24235825    -1.23464621     0.32946114
H      0.21364867     0.54982702     1.46332929
H     -1.37996824     0.13435732     0.36788158
H      1.19133504     1.61497250    -0.54125832
H      0.21477511     1.23841483    -1.45373576
H     -0.57471073     2.26594097    -0.86809122
H     -0.08951161    -1.99671472    -0.37941223
9
ethanol noise sigma=0.12 parent=2
C     -0.44096357     0.03014721     0.22857006
C      0.17362817     1.18891178    -0.70856619
O      0.22282803    -1.02574442     0.46311246
H     -0.13064834     0.50607492     1.60986644
H     -1.42032028     0.01622927     0.35301611
H      0.99479490     1.65325250    -0.42288281
H      0.15412853     1.19302435    -1.78109071
H     -0.78240896     2.10470422    -0.64052009
H     -0.24137764    -1.88217752    -0.41933393
9
ethanol noise sigma=0.12 parent=2
C     -0.28337880     0.21599896     0.51960494
C      0.09731615     1.38651831    -0.74745091
O      0.16077214    -1.34969058     0.35903348
H     -0.20641097     0.20831234     1.67627717
H     -1.43748059    -0.06803855     0.24976167
H      1.10777797     1.61123804    -0.27972456
H      0.09000539     1.16839895    -1.86314531
H     -0.55320995     2.05719820    -0.79061566
H     -0.08213072    -1.88298875    -0.20422771
9
ethanol noise sigma=0.12 parent=2
C     -0.27242866    -0.09482042     0.35096311
C      0.32864481     1.28978025    -0.55673391
O      0.40333750    -1.05512350     0.08729469
H     -0.09446738     0.39643257     1.38859945
H     -1.27818944    -0.21198661    -0.05231904
H      1.18825358     1.60555620    -0.28887269
H      0.18474786     1.08335260    -1.57295367
H     -0.75796264     2.15379369    -0.79527100
H      0.04799746    -1.94109567    -0.17513709
9
ethanol noise sigma=0.12 parent=2
C     -0.29235966     0.21551253     0.40331393
C      0.23775268     1.35912895    -0.65525838
O      0.32327541    -1.47779362     0.26883052
H      0.10681751     0.47895786     1.25679525
H     -1.54854500    -0.20637305     0.18302896
H      1.25480503     1.63244167    -0.32233010
H     -0.09015515     1.02863591    -1.70764881
H     -0.56041064     2.24458820    -0.62872488
H     -0.07303734    -1.77154480    -0.22838735
9
ethanol noise sigma=0.12 parent=2
C     -0.48202823     0.05358020     0.18959837
C      0.28835594     1.36014276    -0.66003897
O      0.17224283    -1.32605043     0.54205953
H     -0.07817640     0.34591371     1.32864550
H     -1.32588887    -0.28097451     0.16549820
H      1.22794120     1.72862507    -0.34289825
H      0.02368053     1.13478379    -1.53730749
H     -0.70476425     2.06671442    -0.68312744
H     -0.15492863    -1.96998909    -0.35731173
9
ethanol noise sigma=0.2 parent=2
C     -0.77357958     0.29672799     0.08790456
C      0.11588815     1.17205881    -0.53585790
O      0.00552932    -1.47297421     0.38729442
H     -0.04600882     0.31990841     1.49226213
H     -1.49943655    -0.13668731     0.00176234
H      1.15118767     1.80910686    -0.43865686
H      0.04493198     1.22208387    -1.80612477
H     -0.73247039     2.17883239    -0.32674614
H     -0.24170435    -1.92468309    -0.22517792
9
ethanol noise sigma=0.2 parent=2
C     -0.43026441     0.05901426     0.52906952
C     -0.21744237     1.36211526    -0.49272350
O      0.47378260    -1.21574786     0.46296869
H     -0.16768898     0.08668981     1.45904355
H     -1.37037757     0.01182211     0.47767426
H      1.63807113     1.73279437    -0.08209036
H      0.09636024     1.10771093    -1.91140355
H     -0.55829135     2.04849660    -0.60063578
H     -0.42437224    -1.69903078    -0.57030130
9
ethanol noise sigma=0.2 parent=2
C     -0.25285072    -0.25759083     0.28688513
C      0.16124905     1.42796631    -0.37479888
O      0.00790054    -1.28468850     0.32878165
H     -0.05088040     0.64688772     1.30218974
H     -1.60389957    -0.18698339     0.39800956
H      1.00737819     1.28858516    -0.49598770
H      0.28178262     1.34117035    -1.85362437
H     -0.73439611     2.30575718    -0.44817511
H     -0.16933164    -1.89870988    -0.13443924
9
ethanol noise sigma=0.2 parent=2
C     -0.64084164     0.40505327     0.08830093
C     -0.25724167     1.51727262    -0.65735616
O      0.39386825    -1.55378436     0.43218191
H     -0.00249049     0.45518328     1.44888493
H     -1.41697482    -0.07847509     0.00378475
H      1.54082597     1.53717793    -0.65451368
H      0.11487724     0.99015871    -1.87316824
H      0.00152175     2.23722535    -0.98693298
H     -0.26318527    -1.98769395    -0.30337481
9
ethanol noise sigma=0.2 parent=2
C     -0.22784931     0.21919585     0.64749539
C      0.03128707     1.21283292    -0.45702477
O      0.47234651    -1.30572718     0.27328103
H      0.16559665     0.54193871     1.64502067
H     -1.18479705     0.03774008     0.27194558
H      1.19368606     1.64353460    -0.64628930
H      0.16712350     1.21125776    -1.58198624
H     -0.73042561     2.12947726    -0.41515240
H      0.05288549    -2.07968110    -0.56177497
9
ethanol noise sigma=0.2 parent=2
C     -0.29829544    -0.14980468     0.66135834
C      0.09107239     1.40951580    -1.02497966
O      0.26787636    -1.21770800     0.08209892
H      0.29996754     0.41972306     1.50667439
H     -1.45765720    -0.02146919     0.36113123
H      1.23403783     1.71777001    -0.71731730
H      0.05478728     0.79794157    -1.67087198
H     -0.75140257     1.81794519    -0.33309972
H     -0.21935928    -1.97854031    -0.28315927
9
ethanol noise sigma=0.2 parent=2
C     -0.38070333     0.25691190     0.60040067
C      0.02909867     1.39614832    -0.53568074
O     -0.00830684    -1.12587190     0.55084900
H     -0.08753311     0.34973914     1.22271143
H     -1.20858429    -0.20133037     0.25628442
H      0.89421525     1.57248791    -0.73857910
H     -0.10914751     1.17935776    -1.95614506
H     -0.82521750     2.00489406    -0.74547333
H     -0.40423289    -1.89372075    -0.41386992
9
ethanol noise sigma=0.2 parent=2
C     -0.22527743     0.19924639     0.31766162
C      0.15850373     1.34129163    -1.03384968
O      0.61827452    -1.61688507     0.63106923
H     -0.23256067    -0.01302740     1.12724547
H     -1.81261956    -0.04040905     0.15215615
H      1.66723515     1.64425071    -0.56679501
H      0.30390099     1.60348709    -1.89559192
H     -0.78398391     2.13460610    -0.90191184
H     -0.33253677    -1.61047677    -0.08416995
9
ethanol parent 3 Properties=species:S:1:pos:R:3 pbc="F F F"
C     -0.08968956     0.32364899     0.41129418
C      0.70613277     0.86319109    -0.72878648
O     -0.58101163    -1.07008034     0.33477152
H      0.32893501     0.27394467     1.42690519
H     -0.99993461     0.96060102     0.68559618
H      0.29512664     0.51013586    -1.73238151
H      0.68029510     1.91678955    -0.74925211
H      1.80530818     0.39637688    -0.63931052
H     -0.23369994    -1.21606050    -0.52224223
9
ethanol strain 0.9 parent=3
C     -0.05948214     0.32415684     0.35334914
C      0.65675796     0.80974473    -0.67272345
O     -0.50167200    -0.93019956     0.28447875
H      0.31727998     0.27942295     1.26739905
H     -0.87870268     0.89741366     0.60022094
H      0.28685244     0.49199502    -1.57595898
H      0.63350406     1.75798334    -0.69114252
H      1.64601583     0.38961194    -0.59219509
H     -0.18909148    -1.06158170    -0.48683363
9
ethanol strain 1.1 parent=3
C     -0.11989698     0.32314114     0.46923922
C      0.75550758     0.91663745    -0.78484951
O     -0.66035126    -1.20996112     0.38506429
H      0.34059004     0.26846639     1.58641133
H     -1.12116654     1.02378838     0.77097142
H      0.30340084     0.52827670    -1.88880404
H      0.72708614     2.07559576    -0.80736170
H      1.96460053     0.40314182    -0.68642595
H     -0.27830840    -1.37053930    -0.55765083
9
ethanol noise sigma=0.12 parent=3
C      0.02918247     0.32642533     0.55050111
C      0.49767884     1.01838955    -0.91199693
O     -0.70220311    -1.03485423     0.19134394
H      0.34843776     0.29751662     1.54010654
H     -1.02304650     0.96363745     0.64617974
H      0.27598591     0.47108592    -1.74767945
H      0.73311700     2.03867321    -0.72692920
H      1.44760279     0.41829662    -0.85981718
H     -0.36685466    -1.15883746    -0.82509382
9
ethanol noise sigma=0.12 parent=3
C     -0.18130082     0.33487218     0.39546888
C      0.63585170     0.68522644    -0.51447555
O     -0.75639321    -1.16880233     0.41011233
H      0.33608589     0.35203540     1.56939885
H     -1.13672800     1.01180175     0.59272238
H      0.29698288     0.48857500    -1.83623244
H      0.68138632     1.80448168    -0.40650764
H      2.10409802     0.40236827    -0.82537212
H     -0.56371536    -1.42943396    -0.37835265
9
ethanol noise sigma=0.12 parent=3
C     -0.23868498     0.27354178     0.34633357
C      0.63896376     0.80435866    -0.77464683
O     -0.39323607    -1.03120347     0.60164294
H      0.37391960     0.31262398     1.68810711
H     -1.06716147     1.13859793     0.58800312
H      0.45209029     0.54669044    -1.65412503
H      0.64437056     2.25593308    -0.65253175
H      1.73657051     0.66702067    -0.71284235
H     -0.12935014    -1.08610913    -0.49636608
9
ethanol noise sigma=0.12 parent=3
C      0.01755526     0.29489822     0.49175227
C      0.63424230     0.81972779    -0.76133626
O     -0.52341705    -1.09257191     0.54064204
H      0.25583904     0.58212230     1.44872536
H     -0.98171718     0.96142102     0.82990603
H      0.25012289     0.62281786    -1.73460636
H      0.50340239     1.93026885    -0.50279191
H      1.70528732     0.51620908    -0.76817439
H     -0.07840588    -1.34030324    -0.58880285
9
ethanol noise sigma=0.12 parent=3
C     -0.06723164     0.36612283     0.39513698
C      0.93935371     0.97239952    -0.78409079
O     -0.50926366    -1.03488301     0.39254462
H      0.30407503     0.23368892     1.45028594
H     -1.11022732     0.96330814     1.02696045
H      0.25997766     0.28224620    -1.73679672
H      0.61873829     1.79807958    -0.74515042
H      1.77387294     0.50654519    -0.44415585
H     -0.41458295    -1.23609327    -0.70424324
9
ethanol noise sigma=0.12 parent=3
C     -0.23086289     0.32286181     0.48618681
C      0.64727656     1.09739895    -0.93250262
O     -0.58613760    -1.05488142     0.22592110
H      0.31182330     0.06357646     1.28058603
H     -1.00909292     0.83061147     0.70966924
H      0.33350664     0.66207620    -1.67523663
H      0.60818203     1.81599180    -0.69184494
H      1.72670804     0.65894523    -0.64633724
H     -0.28426659    -1.32670974    -0.53383958
9
ethanol noise sigma=0.12 parent=3
C     -0.12816325     0.36709887     0.32066823
C      0.63819558     0.83646358    -0.78332946
O     -0.71012806    -1.08455939     0.30711467
H      0.29583998     0.30836675     1.28443144
H     -1.00064937     1.03312792     0.69309677
H      0.27739420     0.42212391    -1.78544893
H      0.50785718     2.17730900    -0.69978769
H      1.86381221     0.51058723    -0.63114799
H     -0.20165355    -1.19952792    -0.63938197
9
ethanol noise sigma=0.12 parent=3
C     -0.35353283     0.40348830     0.55298075
C      0.77905736     0.84610285    -0.64862953
O     -0.46336826    -0.92038184     0.38546236
H      0.45331869     0.06042432     1.54245608
H     -0.89956943     0.82923837     0.68229436
H      0.36122169     0.65992147    -1.62773194
H      0.82884373     1.92130540    -0.74642390
H      1.87201465     0.31044463    -0.76024052
H     -0.15554115    -1.23842367    -0.51925645
9
ethanol noise sigma=0.2 parent=3
C      0.14226390    -0.17907149     0.35713648
C      0.86124314     0.81184015    -0.43943909
O     -0.83321587    -1.11358315     0.21613116
H      0.22917429     0.02925625     1.39615688
H     -1.20060677     0.75708511     0.79116319
H      0.28263822     0.24255508    -1.75004406
H      0.78221605     2.08001507    -0.74253865
H      2.05588798     0.35026735    -0.78939329
H     -0.36607755    -1.18422984    -1.03672432
9
ethanol noise sigma=0.2 parent=3
C      0.23878539     0.46771737     0.28803503
C      0.63771473     0.96987897    -0.39170511
O     -0.88876909    -0.86130602     0.39705640
H      0.20931377     0.36086035     1.23575150
H     -1.32210834     0.57834969     1.10214765
H      0.17972022     0.41601890    -1.77539117
H      0.58233853     1.69211781    -0.61225965
H      1.84327636     0.48345791    -0.92554180
H      0.03763275    -1.15092118    -0.30565125
9
ethanol noise sigma=0.2 parent=3
C     -0.18842273     0.24183240     0.12857781
C      0.99149098     0.92792646    -0.97629173
O     -0.59698222    -1.08632654     0.35099506
H      0.51574725     0.47885665     1.50369463
H     -1.22376035     0.76710146     0.49959758
H      0.14440096     0.58823517    -1.85906830
H      0.63682057     2.05761839    -0.86380910
H      2.19191972    -0.02842319    -0.52126858
H     -0.43089784    -1.19853178    -0.56168682
9
ethanol noise sigma=0.2 parent=3
C     -0.12500008     0.13899929     0.43541858
C      0.50275164     0.88464014    -0.87824575
O     -0.82929990    -0.82666478     0.33651200
H      0.16257242     0.37160122     1.56970116
H     -0.66521702     1.02749400     0.82518798
H      0.08900745     0.90122325    -1.84768331
H      0.69515889     1.95653583    -0.58256236
H      1.81296232     0.38060888    -0.62387546
H      0.08623663    -0.98827124    -0.38592944
9
ethanol noise sigma=0.2 parent=3
C      0.02822621     0.13550008     0.32607299
C      0.46395357     1.25245368    -1.08505128
O     -0.84969497    -1.24541794     0.22934669
H     -0.03100232     0.03283754     1.58676943
H     -1.33942708     1.16208017     0.76093615
H      0.13193808    -0.05656463    -1.88890996
H      0.66615839     1.77528738    -0.83019385
H      1.81535282     0.35310708    -0.28063491
H     -0.11356388    -0.96697020    -0.49357823
9
ethanol noise sigma=0.2 parent=3
C     -0.58558809     0.26236630     0.44186727
C      0.45055535     1.00081595    -0.70195827
O     -0.97395642    -0.87448995     0.42016488
H      0.30878340     0.11559400     1.63975875
H     -1.52696304     0.82999759     0.92636375
H      0.58027099     0.59633253    -1.40126948
H      0.57834612     1.70770274    -0.34327639
H      2.06259609     0.40135505    -0.44840756
H     -0.15715325    -1.22909336    -0.41985701
9
ethanol noise sigma=0.2 parent=3
C      0.17248254     0.06860915     0.29448304
C      0.68022520     0.72048614    -0.73770685
O     -0.86611780    -1.15998177     0.47619669
H      0.27767042     0.26050877     1.55467533
H     -0.66183469     0.83505486     0.55966504
H      0.46611848     0.62457212    -1.97082537
H      0.50515271     1.80988909    -0.75502509
H      1.80148011     0.57105673    -0.29891355
H     -0.00628559    -1.33550618    -0.63792078
9
ethanol noise sigma=0.2 parent=3
C     -0.26936141     0.15515283     0.61545968
C      0.79244817     0.43462296    -0.73475542
O     -0.36065102    -1.37921171     0.45598500
H      0.70097698    -0.11239560     1.29515563
H     -1.23796299     1.01423902     0.73130557
H      0.57081272     0.54758740    -1.78199357
H      0.65433216     2.14470181    -0.95378878
H      1.74841302     0.25635389    -0.72273662
H      0.00627990    -1.34132478    -0.30596541
9
ethanol parent 4 Properties=species:S:1:pos:R:3 pbc="F F F"
C     -0.22590821    -0.48381197     0.08506863
C     -0.96742720     0.79487346     0.48318323
O      1.06032870    -0.28640986    -0.56922910
H     -0.06282576    -1.19014868     0.98315592
H     -0.80785025    -0.95778176    -0.77900908
H     -1.98431689     0.48624369     0.76009908
H     -0.55927553     1.17264322     1.48992849
H     -0.92500107     1.58947601    -0.29457464
H      1.72718302    -0.26227976     0.10464354
9
ethanol strain 0.9 parent=4
C     -0.23381842    -0.42584406     0.10170917
C     -0.90118552     0.72497283     0.46001231
O      0.92379479    -0.24818216    -0.48715879
H     -0.08704422    -1.06154710     0.90998773
H     -0.75756626    -0.85241687    -0.67596077
H     -1.81638624     0.44720604     0.70923657
H     -0.53384901     1.06496561     1.36608304
H     -0.86300200     1.44011512    -0.23996978
H      1.52396368    -0.22646507     0.11932659
9
ethanol strain 1.1 parent=4
C     -0.21799800    -0.54177988     0.06842809
C     -1.03366888     0.86477409     0.50635415
O      1.19686261    -0.32463756    -0.65129941
H     -0.03860730    -1.31875026     1.05632411
H     -0.85813424    -1.06314665    -0.88205739
H     -2.15224754     0.52528134     0.81096159
H     -0.58470205     1.28032083     1.61377394
H     -0.98700014     1.73883690    -0.34917950
H      1.93040236    -0.29809445     0.08996049
9
ethanol noise sigma=0.12 parent=4
C     -0.31851679    -0.61745415    -0.08905912
C     -0.62489983     0.79003728     0.63666511
O      1.03622322    -0.26448067    -0.67439552
H      0.07692533    -1.10775242     0.89507376
H     -0.71582528    -0.81478870    -0.64113905
H     -1.94083490     0.62449028     0.88412542
H     -0.54654499     0.96482700     1.37369729
H     -0.74815471     1.50238101    -0.30240498
H      1.70500659    -0.34319662     0.31532770
9
ethanol noise sigma=0.12 parent=4
C     -0.29418697    -0.30062185     0.09772967
C     -1.00483174     0.80645024     0.32394919
O      1.08772221    -0.21700052    -0.55812326
H     -0.05305762    -1.28269487     1.06275074
H     -0.89801393    -1.02014629    -0.87645641
H     -1.80639301     0.50595314     0.72135283
H     -0.41093369     1.12660124     1.34515639
H     -0.89832313     1.65584720    -0.17356503
H      1.50075097    -0.34820184     0.24737156
9
ethanol noise sigma=0.12 parent=4
C     -0.15934962    -0.49999589    -0.12562395
C     -0.97500345     0.70558224     0.35456079
O      1.08979200    -0.39824357    -0.55229348
H      0.03970726    -1.24210300     1.10190587
H     -0.64029782    -0.79983530    -0.89339133
H     -2.13230065     0.37412639     0.58787326
H     -0.64757028     1.20321622     1.50134638
H     -0.86721147     1.76628560    -0.33256092
H      1.61871955    -0.38506900    -0.02797405
9
ethanol noise sigma=0.12 parent=4
C     -0.16531109    -0.30658331     0.13141703
C     -1.01315315     0.81736119     0.61827165
O      1.00917211    -0.19730434    -0.56031124
H     -0.12310939    -1.06315130     1.10578949
H     -0.80728650    -1.05199864    -0.92898610
H     -2.08723970     0.64844858     0.78169410
H     -0.53104209     1.24559514     1.49956304
H     -0.87903493     1.49568193    -0.13272627
H      1.61953034    -0.16212443    -0.19530475
9
ethanol noise sigma=0.12 parent=4
C     -0.33173994    -0.62923325     0.15203324
C     -1.13143959     0.63148058     0.56313242
O      1.24316170    -0.18130010    -0.30251570
H      0.04882624    -1.32303492     0.73047986
H     -0.88587900    -1.05125969    -0.91022624
H     -1.98629145     0.67557473     0.88635814
H     -0.51829232     1.24644467     1.40252251
H     -0.76234759     1.50248461    -0.23927139
H      1.63756875    -0.31506344     0.19374790
9
ethanol noise sigma=0.12 parent=4
C     -0.03086570    -0.65951223     0.13819794
C     -0.63038541     0.85582327     0.54658677
O      1.19784332    -0.23745758    -0.47462730
H     -0.03641194    -1.33274285     1.04187418
H     -0.81426070    -0.77275880    -0.96461882
H     -2.10462402     0.72600967     0.73028458
H     -0.37375685     1.10205022     1.61825121
H     -1.08651123     1.41957956    -0.31663073
H      1.77150153    -0.29936381     0.29834212
9
ethanol noise sigma=0.12 parent=4
C     -0.29633957    -0.37188877     0.01535568
C     -1.06861705     0.88544239     0.40126699
O      0.81775131    -0.26126337    -0.45788897
H     -0.02349926    -1.27390274     0.82810794
H     -0.92776022    -0.91085458    -0.56369226
H     -2.12419684     0.47712624     0.88852809
H     -0.50215969     1.17591821     1.42314774
H     -0.83147361     1.56974578    -0.35751967
H      1.50691550    -0.19370416     0.16555550
9
ethanol noise sigma=0.12 parent=4
C     -0.16829418    -0.57995084     0.21042001
C     -0.89140077     0.76557603     0.32653576
O      1.10595664    -0.16906983    -0.81149175
H     -0.00436857    -1.23259868     0.96457796
H     -0.77606991    -0.83960220    -0.75373263
H     -2.13656847     0.55068406     0.81632051
H     -0.58036026     1.35662415     1.45009298
H     -0.80377591     1.72630945    -0.26088194
H      1.75936981    -0.29820342     0.04940392
9
ethanol noise sigma=0.2 parent=4
C     -0.33460540    -0.66456790    -0.00292547
C     -1.11762620     0.72642664     0.42481348
O      1.29018713    -0.55893017    -0.75805512
H      0.15636062    -0.95675135     1.13933335
H     -0.77122764    -0.44928506    -0.74326348
H     -1.95101097     0.72142721     0.56758704
H     -0.62191076     1.11400085     1.18837076
H     -0.80751127     1.91115004    -0.14040777
H      1.64063323    -0.31838735    -0.10121742
9
ethanol noise sigma=0.2 parent=4
C     -0.25346201    -0.40766202    -0.16141416
C     -0.79441748     0.50464302     0.35004363
O      1.06142353    -0.11178461    -0.57916890
H     -0.32345999    -1.46697788     1.00829098
H     -0.74861314    -0.87993982    -1.09395316
H     -1.89495600     0.63088617     0.57111285
H     -0.73523634     1.30803549     1.30502168
H     -0.79712504     1.90472239    -0.43049212
H      1.80721314    -0.16630917     0.22238748
9
ethanol noise sigma=0.2 parent=4
C     -0.14355880    -0.40208726    -0.01153127
C     -0.97824184     0.92916163     0.76225042
O      1.20310298     0.01724846    -0.39923793
H     -0.04097025    -1.04129183     1.18307791
H     -1.13887806    -0.92813954    -1.13772514
H     -1.82956434     0.73781467     0.85720456
H     -0.38928407     1.23884629     1.61249863
H     -1.00562753     2.11552789    -0.08393727
H      1.99804659    -0.24054541     0.26699747
9
ethanol noise sigma=0.2 parent=4
C     -0.00538866    -0.43805958    -0.00546440
C     -0.70397284     0.64928644     0.57726041
O      1.14939727    -0.55773695    -0.34663964
H      0.02200645    -1.28592417     1.17217653
H     -1.00954484    -0.71634930    -0.72509175
H     -2.03524807     0.74089615     0.77574515
H     -0.65776324     1.23381547     1.52244199
H     -1.24263096     1.51380001    -0.33468853
H      2.04493456    -0.10404833    -0.06361458
9
ethanol noise sigma=0.2 parent=4
C     -0.19934603    -0.46548936     0.34508359
C     -0.76078651     0.80513727     0.45985029
O      0.76867843    -0.62195697    -0.71778592
H      0.42096310    -1.16185894     0.85619574
H     -0.65982863    -0.60424013    -0.79207668
H     -1.93548124     0.78625509     0.79131682
H     -0.61130664     1.06041100     1.64559997
H     -1.02673673     1.59010091    -0.14617300
H      1.53078204    -0.53918878     0.15255619
9
ethanol noise sigma=0.2 parent=4
C     -0.28571375    -0.60318108    -0.04551860
C     -0.71720773     0.94429523     0.52384619
O      1.13456587    -0.22178421    -0.58090720
H     -0.26119716    -1.17124122     1.24674245
H     -0.28734361    -0.89300791    -0.75097594
H     -2.09969923     0.72618799     0.46870278
H     -0.67620123     0.97255894     1.38722614
H     -0.82935753     1.57828569    -0.46789682
H      1.76230012    -0.03082025     0.07326557
9
ethanol noise sigma=0.2 parent=4
C     -0.57769959    -0.48347946     0.38175010
C     -0.98958337     0.90766130     0.51075823
O      1.10526315    -0.23970184    -0.08859063
H      0.04631709    -1.46889584     1.16301652
H     -0.81751782    -0.82075108    -0.69456283
H     -1.99273699     0.53309416     0.70763578
H     -0.77353654     1.20218187     1.23912891
H     -1.03454607     1.87149989    -0.00734776
H      1.77163877    -0.11557984     0.23915844
9
ethanol noise sigma=0.2 parent=4
C     -0.18104782    -0.67852096    -0.03029461
C     -0.61178801     0.68873903     0.37745871
O      1.19627842    -0.44699908    -0.57264503
H     -0.24629890    -0.96486820     1.05952927
H     -0.32975419    -0.73560479    -0.97801893
H     -2.11000139    -0.17233365     0.55403040
H     -0.53170226     0.96755172     1.21079858
H     -1.05629388     1.64127200     0.02275647
H      1.72042351    -0.30049037     0.02807699
9
ethanol parent 5 Properties=species:S:1:pos:R:3 pbc="F F F"
C      0.12088588    -0.37406141    -0.28018699
C     -1.22130616     0.10917319    -0.35379212
O      1.02537037     0.24890071     0.54044350
H      0.24261463    -1.39651410    -0.15200743
H      0.52806188    -0.26020531    -1.24588916
H     -1.20996920     1.18784874    -0.39112902
H     -1.68466632    -0.26280543    -1.24594860
H     -1.82212694    -0.22212348     0.46607585
H      0.78172117     0.15783836     1.54479095
9
ethanol strain 0.9 parent=5
C      0.07280380    -0.34567692    -0.26458655
C     -1.13516904     0.08923422    -0.33083116
O      0.88683984     0.21498899     0.47398089
H      0.18235967    -1.26588434    -0.14922494
H      0.43926220    -0.24320643    -1.13371850
H     -1.12496578     1.06004221    -0.36443437
H     -1.55219318    -0.24554654    -1.13377200
H     -1.67590774    -0.20893278     0.40705001
H      0.66755556     0.13303287     1.37789360
9
ethanol strain 1.1 parent=5
C      0.16896796    -0.40244590    -0.29578743
C     -1.30744328     0.12911216    -0.37675308
O      1.16390090     0.28281243     0.60690611
H      0.30286959    -1.52714386    -0.15478992
H      0.61686156    -0.27720419    -1.35805982
H     -1.29497262     1.31565527    -0.41782367
H     -1.81713946    -0.28006432    -1.35812520
H     -1.96834614    -0.23531418     0.52510169
H      0.89588678     0.18264385     1.71168830
9
ethanol noise sigma=0.12 parent=5
C     -0.01952631    -0.28368364    -0.20901724
C     -1.29510534     0.27263266    -0.25340304
O      1.12132453     0.13189889     0.51575172
H      0.13808043    -1.42122786    -0.09736927
H      0.69778479    -0.13164980    -1.18183197
H     -1.35238233     1.04942610    -0.43253371
H     -1.66916941    -0.31108693    -1.23154523
H     -1.75497794    -0.08306395     0.45034378
H      0.75398889     0.05898078     1.62261908
9
ethanol noise sigma=0.12 parent=5
C     -0.07258495    -0.69991686    -0.02995523
C     -1.01978516     0.09074581    -0.51097230
O      1.26925560     0.40079598     0.50852729
H      0.13465419    -1.26744765    -0.17660966
H      0.58262679    -0.29920249    -1.13421606
H     -1.35824242     1.20418624    -0.23603252
H     -1.76159536    -0.39453545    -1.20399163
H     -1.77629664    -0.38601342     0.36447023
H      0.83914484     0.14772607     1.37065860
9
ethanol noise sigma=0.12 parent=5
C      0.08247654    -0.31866668    -0.26588863
C     -1.19596268     0.06294085    -0.57950986
O      0.99873223     0.23625592     0.48857239
H      0.31068605    -1.26120289    -0.05737441
H      0.66879586    -0.44213080    -1.21158124
H     -1.29479582     1.17775059    -0.49043798
H     -1.80239094    -0.09425517    -1.08074417
H     -1.80174670    -0.27793259     0.58967041
H      0.79248660     0.23745359     1.67552965
9
ethanol noise sigma=0.12 parent=5
C      0.09115208    -0.33298131    -0.11154103
C     -1.11821333     0.01418249    -0.54536459
O      0.91216426     0.34914939     0.45077192
H      0.17954207    -1.42385649     0.02088815
H      0.78382986    -0.25271227    -1.09634836
H     -1.19848081     1.24446792    -0.40379464
H     -1.55921539    -0.25456274    -0.97646922
H     -1.89661847     0.03170124     0.32393101
H      0.56364385     0.13431239     1.55034748
9
ethanol noise sigma=0.12 parent=5
C      0.14918245    -0.33472006    -0.25292479
C     -1.19296412     0.11512257    -0.21423808
O      0.98533471     0.18067697     0.37398363
H      0.34689694    -1.25013513    -0.03747611
H      0.54489379    -0.25016935    -1.22212714
H     -1.35665132     1.10799676    -0.45078007
H     -1.59469516    -0.13602444    -1.37184092
H     -1.48682786    -0.15085548     0.22141085
H      0.83191540     0.26238702     1.50064808
9
ethanol noise sigma=0.12 parent=5
C      0.16281090    -0.53592340    -0.25991068
C     -1.24295230     0.18074146    -0.26805295
O      1.04040727    -0.11189199     0.56703070
H      0.22181461    -1.48509798    -0.15998886
H      0.60850895    -0.25064363    -1.25535555
H     -1.03476937     1.07873002    -0.43675312
H     -1.53814796    -0.12014684    -1.12490036
H     -1.57202070    -0.02882706     0.32060003
H      0.87020940     0.40911401     1.48761703
9
ethanol noise sigma=0.12 parent=5
C      0.19320629    -0.52363236    -0.38382975
C     -1.11635446     0.11223183    -0.45839534
O      1.17991606     0.18836247     0.60171153
H      0.21246128    -1.53976348    -0.14827844
H      0.48338456    -0.11344111    -1.35993479
H     -1.20891786     1.17823253    -0.24675865
H     -1.75513002    -0.20515091    -1.12042611
H     -1.78147841    -0.25102218     0.40898840
H      0.83383696     0.11860541     1.57442704
9
ethanol noise sigma=0.12 parent=5
C      0.14397195    -0.34517288    -0.35196996
C     -1.05068031     0.17878715    -0.34701974
O      1.13706835     0.16066252     0.49695531
H      0.33616798    -1.48017470    -0.27115988
H      0.39701422    -0.45015835    -1.30580775
H     -1.23196498     1.25736901    -0.60815295
H     -1.62006326    -0.39743821    -1.22586560
H     -1.63924251    -0.36286522     0.64674883
H      0.72309682     0.10268632     1.43360936
9
ethanol noise sigma=0.2 parent=5
C      0.15795943     0.02076816    -0.57722874
C     -1.66754466     0.13869322     0.09827992
O      1.11284094     0.56726749     0.19161580
H      0.38918957    -1.52302667    -0.26120555
H      0.57238891    -0.38273982    -1.27550824
H     -1.49103125     1.17367904    -0.79117560
H     -1.42143776     0.04818101    -1.23640152
H     -2.18101067     0.03934182     0.40817055
H      0.82475706    -0.07121550     1.76487852
9
ethanol noise sigma=0.2 parent=5
C      0.04007463    -0.41034117    -0.28823652
C     -1.30759554     0.16353585    -0.11090642
O      1.03752503     0.33211779     0.58097483
H      0.37835739    -1.42602847    -0.31893227
H      0.80509237     0.12753437    -1.15758686
H     -1.28594539     1.20004423    -0.24751785
H     -1.58488212    -0.39014903    -1.45003257
H     -1.84881714    -0.15122043     0.43874572
H      0.63261964    -0.04170246     1.60544006
9
ethanol noise sigma=0.2 parent=5
C     -0.30856733    -0.57830338    -0.15340697
C     -1.61950525     0.06864071    -0.07080016
O      0.87231386    -0.05118215     0.14895279
H      0.46887758    -1.80508557    -0.10369733
H      0.21468744    -0.20751216    -1.22007038
H     -1.06803384     0.91451364    -0.45922751
H     -2.07038673    -0.27632449    -1.11049399
H     -1.98548706    -0.04985201     0.55219962
H      0.98324498     0.47240330     1.50867672
9
ethanol noise sigma=0.2 parent=5
C      0.41784080    -0.40801875    -0.49991510
C     -1.08026118    -0.02218262    -0.82334821
O      1.12750629     0.35648111     0.82711597
H      0.38868152    -1.36658950    -0.60772295
H      0.55939831    -0.01837659    -1.50184304
H     -1.03785597     1.38678929    -0.40902672
H     -1.59799570    -0.28796748    -1.61435580
H     -2.06647714    -0.12217501     0.36246496
H      0.93141032     0.44695630     1.70437600
9
ethanol noise sigma=0.2 parent=5
C      0.09192750    -0.53819151    -0.44096976
C     -0.64472964     0.15803717    -0.11993120
O      1.43450932     0.44840839     0.55213760
H     -0.00348172    -1.47834788    -0.06900027
H      0.67683694    -0.01045072    -1.42935362
H     -1.16620046     1.05384885    -0.42476822
H     -1.55547967    -0.50590049    -1.11781206
H     -1.68439759    -0.04844023     0.62371150
H      0.65228760     0.20102508     1.85510591
9
ethanol noise sigma=0.2 parent=5
C      0.08825070    -0.56984939    -0.08418072
C     -1.27584005     0.04194067    -0.62107349
O      0.99894729     0.18904433     0.72664479
H      0.07502662    -1.62969240    -0.04623249
H      0.44930848    -0.52401796    -0.93614717
H     -1.13862594     1.23096395    -0.24356760
H     -1.62152971    -0.15854808    -1.08389797
H     -1.97214918    -0.21276622     0.19404094
H      0.63249830     0.11119451     1.64571752
9
ethanol noise sigma=0.2 parent=5
C      0.33262494    -0.39557755    -0.19463747
C     -1.17498913     0.07656417    -0.56516399
O      1.33144435     0.12170162     0.83277428
H      0.40810003    -0.67042469    -0.31419573
H      0.69319715    -0.48699951    -0.93218931
H     -1.37856626     1.04415341    -0.31086045
H     -1.59947041    -0.25554023    -1.31371461
H     -1.77264209    -0.07358451     0.62766691
H      0.76092645     0.67496187     1.64523857
9
ethanol noise sigma=0.2 parent=5
C      0.35535717    -0.57665604    -0.30577647
C     -1.09821078    -0.36935128    -0.31688213
O      0.96253025     0.12223211     0.70522264
H      0.50371550    -1.55641324    -0.37250280
H      0.75629944    -0.17665487    -1.25950524
H     -1.11910897     1.17220792    -0.32818178
H     -1.68106231    -0.15122462    -1.37715613
H     -1.63406793    -0.42483071     0.96070674
H      0.94533948     0.41355291     1.95535964
9
ethanol parent 6 Properties=species:S:1:pos:R:3 pbc="F F F"
C     -0.22144436     0.35996472     0.54201639
C      0.30714936     0.94810280    -0.94019914
O     -0.07408548    -1.15336098     0.32069599
H      0.29902305     0.56658113     1.50095787
H     -1.34240056     0.63290039     0.64554507
H      0.88899894     1.87728572    -0.90299124
H      0.99736653     0.02571676    -1.23257182
H     -0.52049424     1.26204499    -1.59156597
H     -0.16876513    -1.64535421     1.23488136
9
ethanol strain 0.9 parent=6
C     -0.19746272     0.35590026     0.48311218
C      0.27827163     0.88522453    -0.85088180
O     -0.06483973    -1.00609287     0.28392382
H      0.27095795     0.54185503     1.34615951
H     -1.20632330     0.60154237     0.57628799
H      0.80193625     1.72148916    -0.81739469
H      0.89946708     0.05507710    -1.11401721
H     -0.46660761     1.16777251    -1.43711195
H     -0.15005142    -1.44888677     1.10669065
9
ethanol strain 1.1 parent=6
C     -0.24542600     0.36402918     0.60092060
C      0.33602709     1.01098107    -1.02951648
O     -0.08333123    -1.30062909     0.35746816
H      0.32708815     0.59130723     1.65575623
H     -1.47847782     0.66425841     0.71480215
H      0.97606163     2.03308228    -0.98858779
H      1.09526598    -0.00364358    -1.35112643
H     -0.57438087     1.35631747    -1.74601999
H     -0.18747884    -1.84182165     1.36307207
9
ethanol noise sigma=0.12 parent=6
C     -0.10536333     0.26401687     0.58661752
C      0.33134705     0.95676256    -0.86077001
O     -0.07452837    -1.23542933     0.27199242
H      0.31941338     0.62726146     1.40997113
H     -1.15051725     0.66357221     0.59200061
H      0.75849985     1.88213828    -1.00962623
H      1.07548217    -0.17758442    -1.43148217
H     -0.48436961     1.21866220    -1.44697167
H     -0.19821323    -1.67394656     1.05731385
9
ethanol noise sigma=0.12 parent=6
C     -0.34885440     0.86115973     0.48418929
C      0.16963377     1.03205275    -0.67104840
O      0.12573625    -0.98916223     0.37177595
H      0.09064772     0.63279786     1.75064023
H     -1.46278962     0.89280122     0.60201817
H      0.94556576     1.88422863    -1.07946049
H      1.01873464     0.16133636    -1.40926784
H     -0.51978896     1.12603519    -1.56652454
H     -0.08796093    -1.64400437     1.12898141
9
ethanol noise sigma=0.12 parent=6
C     -0.06012583     0.43880205     0.38314670
C      0.21923549     0.86056990    -0.92691750
O      0.06563709    -1.17805163     0.16201277
H      0.22328676     0.64120808     1.50577669
H     -1.50118530     0.87676948     0.92598210
H      0.96618845     1.77707011    -0.97993030
H      0.98147721    -0.21913648    -1.22848204
H     -0.54107206     1.33525365    -1.67770980
H     -0.09249375    -1.76358366     1.26385588
9
ethanol noise sigma=0.12 parent=6
C     -0.25597174     0.13322985     0.54026729
C      0.21559116     1.15448676    -0.84775964
O      0.04787438    -0.95768051     0.34670171
H      0.27865249     0.74769017     1.60900755
H     -1.27602190     0.56818925     0.62019357
H      0.83315306     2.05077749    -1.05449648
H      0.94311034     0.21786345    -1.17686957
H     -0.68488425     1.28170649    -1.33179964
H     -0.12480301    -1.50229344     1.27206495
9
ethanol noise sigma=0.12 parent=6
C     -0.30351926     0.40776655     0.61468973
C      0.36058767     0.97494382    -1.00654335
O     -0.28593774    -1.01958288     0.25765466
H      0.52317713     0.64630150     1.57297620
H     -1.37209329     0.66192986     0.73183752
H      1.02116538     1.87166632    -0.89853948
H      0.99717817     0.11892857    -1.36330321
H     -0.44133507     1.04724779    -1.50282407
H     -0.06598536    -1.80254616     0.97440367
9
ethanol noise sigma=0.12 parent=6
C     -0.14813611     0.32863607     0.66290463
C      0.41424920     1.01646255    -0.60124084
O     -0.08393524    -1.19838829     0.44551219
H      0.30496161     0.70216202     1.51920322
H     -1.43808703     1.01736788     0.62886160
H      0.88805003     1.81103213    -0.61457985
H      1.12990033     0.19006820    -1.26475439
H     -0.52746411     1.35332727    -1.54798697
H     -0.22549035    -1.71792412     1.23295801
9
ethanol noise sigma=0.12 parent=6
C     -0.12924767     0.59065520     0.67129777
C      0.20651650     0.89199189    -0.88157522
O     -0.02114187    -1.12202558     0.31011395
H      0.33986435     0.54807018     1.56644799
H     -1.43637033     0.46760853     0.71473302
H      0.87169582     1.98384242    -1.10096769
H      1.13576898    -0.08552083    -1.15390393
H     -0.73801078     1.45181859    -1.52848191
H      0.00179290    -1.87048909     1.14670510
9
ethanol noise sigma=0.12 parent=6
C     -0.31943546     0.25283447     0.64869496
C      0.21079124     1.02621067    -0.84543192
O     -0.23808077    -1.32820117     0.38897519
H      0.49264044     0.62254958     1.38621988
H     -1.33305690     0.72250518     0.64122621
H      0.93076201     2.21192617    -0.90073223
H      0.90427516    -0.00904802    -1.48449794
H     -0.59294523     1.20071492    -1.61183689
H     -0.02545840    -2.05630167     1.44431618
9
ethanol noise sigma=0.2 parent=6
C     -0.44993319     0.58207067     0.51606315
C      0.35580666     1.39608071    -0.73872678
O     -0.34118451    -0.99659978     0.22986733
H      0.38833066     0.39156574     1.72391533
H     -1.55652668     0.58574363     0.43380763
H      0.89190270     1.94525169    -0.98787042
H      0.97579891     0.09061449    -1.11003199
H     -0.64558697     1.26554921    -1.63809532
H     -0.16918762    -1.74254930     1.13744969
9
ethanol noise sigma=0.2 parent=6
C     -0.05515655     0.00670916     0.43903464
C      0.59730193     0.79494417    -1.19896198
O     -0.43421177    -1.28912145     0.44902102
H      0.51649454     0.66284995     1.52417584
H     -1.41549978     0.33955654     0.59525612
H      0.74356838     1.92694692    -0.59082631
H      0.85169585     0.17956427    -1.18696367
H     -0.72452786     1.27335774    -1.68255956
H     -0.32221517    -1.64305971     1.37437825
9
ethanol noise sigma=0.2 parent=6
C     -0.55801248     0.56642021     0.40370802
C      0.28385107     0.83187396    -0.91796587
O     -0.00255925    -0.90962779     0.60576971
H      0.05228708     0.97287285     1.33110039
H     -1.35237508     0.68107324     0.98371040
H      0.62559667     1.98754611    -0.82554178
H      0.94365086     0.37898936    -1.23983069
H     -0.41088621     1.37499731    -1.62194074
H      0.00733784    -2.09499871     1.07499914
9
ethanol noise sigma=0.2 parent=6
C     -0.11882179     0.51922616     0.65807909
C      0.31562187     0.80051742    -0.71959554
O      0.13981468    -1.12397019     0.18429177
H      0.23895787     0.36612218     1.33900323
H     -1.24225640     0.70731438     1.20831355
H      0.66965494     1.68829389    -0.65361761
H      0.83730030     0.15929184    -1.17966075
H     -0.47483397     1.29274226    -1.35483477
H      0.01668812    -1.76242270     1.09325048
9
ethanol noise sigma=0.2 parent=6
C     -0.16421440     0.33562972     0.02052106
C      0.30825722     1.27499333    -1.14946501
O     -0.21371841    -1.42214699     0.37242029
H      0.22629945     0.36862602     1.55836431
H     -0.91119182     0.35366832     0.94568184
H      0.73645123     1.90894409    -0.76578629
H      0.95347634     0.01035135    -0.74572254
H     -0.42391309     1.21051882    -1.35879110
H     -0.04759969    -1.68446795     1.19085624
9
ethanol noise sigma=0.2 parent=6
C     -0.47373778     0.26462477     0.21221656
C      0.42680670     0.65307240    -0.92126158
O      0.60792553    -1.04587206     0.50678448
H      0.66536092     0.39270115     1.43509900
H     -1.23753814     0.83898881     0.98343072
H      1.18940459     1.51024680    -1.11909771
H      1.25865751    -0.21994021    -1.19785368
H     -0.30117447     1.45658814    -1.55229772
H      0.26625127    -1.69521097     1.57054099
9
ethanol noise sigma=0.2 parent=6
C      0.12657414     0.39878124     0.79035405
C      0.17670991     1.12847137    -1.07422104
O     -0.55552607    -1.11069436     0.35938303
H      0.38290715     0.60432435     1.37790570
H     -1.13533981     0.43462216     0.84286580
H      0.61683586     1.60949621    -1.00439046
H      0.93249842    -0.26863373    -1.12133443
H     -0.44574297     1.00372863    -1.39205906
H     -0.28285075    -1.50244170     1.08996266
9
ethanol noise sigma=0.2 parent=6
C     -0.24598769     0.39050078     0.54456995
C      0.26851563     1.20309290    -1.10942962
O     -0.08460497    -0.91632958     0.43094028
H      0.27574860     0.29622889     1.51358164
H     -1.40742369     0.76088389     0.67202828
H      0.77811340     1.64604643    -0.93769189
H      0.98205866     0.15145096    -1.16174595
H     -0.55298523     1.33456737    -1.23226089
H     -0.34673731    -1.26414168     1.36397263
9
ethanol parent 7 Properties=species:S:1:pos:R:3 pbc="F F F"
C     -0.18297150    -0.55472967     0.00174260
C     -0.95206752     0.69012805     0.57706948
O      1.04156710    -0.08975590    -0.52024122
H      0.00989690    -1.40079273     0.61049207
H     -0.81047879    -0.97541277    -0.76441809
H     -1.84166049     0.32491317     1.35216149
H     -0.29789672     1.48803590     1.03025695
H     -1.56641033     1.30139159    -0.14369360
H      1.49760787    -0.92832599    -0.72399458
9
ethanol strain 0.9 parent=7
C     -0.19914561    -0.50086280     0.01733917
C     -0.89133203     0.61950915     0.53513337
O      0.90293913    -0.08238640    -0.45244626
H     -0.02556405    -1.26231955     0.56521370
H     -0.76390217    -0.87947759    -0.67220545
H     -1.69196570     0.29081576     1.23271618
H     -0.30257831     1.33762622     0.94300209
H     -1.44424056     1.16964634    -0.11355341
H      1.31337582    -0.83709948    -0.63582429
9
ethanol strain 1.1 parent=7
C     -0.16679739    -0.60859654    -0.01385397
C     -1.01280301     0.76074695     0.61900559
O      1.18019507    -0.09712540    -0.58803618
H      0.04535785    -1.53926591     0.65577044
H     -0.85705541    -1.07134795    -0.85663073
H     -1.99135528     0.35901058     1.47160680
H     -0.29321513     1.63844558     1.11751181
H     -1.68858010     1.43313684    -0.17383379
H      1.68183992    -1.01955250    -0.81216487
9
ethanol noise sigma=0.12 parent=7
C     -0.27202315    -0.69769305    -0.05095482
C     -0.92264769     0.71934315     0.49126396
O      1.02637701    -0.02794977    -0.50467365
H      0.06247128    -1.43224640     0.59082267
H     -0.61203944    -1.21750862    -0.81762182
H     -1.81398284     0.11876523     1.14110770
H     -0.37073387     1.39608415     0.94048681
H     -1.66094400     1.32447342    -0.15260272
H      1.58784041    -0.98399634    -0.67240481
9
ethanol noise sigma=0.12 parent=7
C     -0.25860830    -0.59018109    -0.04653592
C     -1.06827028     0.75608644     0.50575424
O      1.14547484     0.13194360    -0.45229981
H      0.03116476    -1.55918461     0.57877331
H     -0.93048280    -1.19262449    -0.89453241
H     -1.86511634     0.31250479     1.38623809
H     -0.24834520     1.52506688     0.91681784
H     -1.67537221     1.33546916    -0.05362090
H      1.56496256    -1.09363272    -0.92248300
9
ethanol noise sigma=0.12 parent=7
C     -0.40107801    -0.41876206    -0.07832239
C     -0.90383946     0.77390441     0.57287440
O      1.06757220    -0.13621927    -0.55930585
H     -0.12321136    -1.36569569     0.58543887
H     -0.65124233    -0.95364864    -0.71246596
H     -1.82003685     0.40709617     1.56191866
H     -0.15960852     1.60873025     0.93030870
H     -1.72472166     1.19452882    -0.14545576
H      1.42227414    -0.99556004    -0.67963087
9
ethanol noise sigma=0.12 parent=7
C     -0.19172568    -0.46231225    -0.06187355
C     -0.87446311     0.47838175     0.58736188
O      1.04006519     0.06618490    -0.39578777
H     -0.08974856    -1.21360330     0.54969882
H     -1.00056148    -0.95534612    -0.77075844
H     -1.56984395     0.46788094     1.33632960
H     -0.48444013     1.69849735     1.08717039
H     -1.60439279     1.17338970    -0.11874879
H      1.48693766    -1.04873574    -0.56103486
9
ethanol noise sigma=0.12 parent=7
C     -0.45093936    -0.42583603     0.03716494
C     -0.70704679     0.58062853     0.44177546
O      1.30776336    -0.11494529    -0.40570270
H      0.24960073    -1.25615139     0.69551720
H     -0.71048137    -0.92088515    -0.60944731
H     -1.94851011     0.30785801     1.28438608
H     -0.12534672     1.39240008     0.99929795
H     -1.69985174     1.29574547     0.03434527
H      1.37119991    -0.96587872    -0.66164531
9
ethanol noise sigma=0.12 parent=7
C     -0.28701892    -0.84916221    -0.20841698
C     -0.89204768     0.79369850     0.84382947
O      1.08681815     0.11657242    -0.43563056
H      0.02773445    -1.39113054     0.59299158
H     -0.98786155    -1.10784003    -0.79873959
H     -1.81870135     0.36378577     1.17862996
H     -0.35204962     1.39844875     1.10277932
H     -1.60528512     1.36232176    -0.25206072
H      1.40442936    -0.76532671    -0.78185100
9
ethanol noise sigma=0.12 parent=7
C     -0.23922861    -0.61149129     0.08083190
C     -0.84241074     0.70502111     0.58941081
O      1.01947381    -0.07567387    -0.46573427
H     -0.19179409    -1.46022772     0.56037308
H     -0.82879361    -1.11344613    -0.86901609
H     -1.75237194     0.25416574     1.19841459
H     -0.22853587     1.56501591     1.18710126
H     -1.64879764     1.10836518     0.03236260
H      1.55865825    -0.95803156    -0.97828143
9
ethanol noise sigma=0.12 parent=7
C     -0.21480216    -0.58049589    -0.05106931
C     -0.88251240     0.62898302     0.66512952
O      0.96463290    -0.11046066    -0.60516067
H     -0.05617238    -1.24979430     0.45778807
H     -0.74089126    -0.93087360    -0.80976190
H     -1.91175288     0.38736740     1.26247033
H     -0.31233419     1.52488466     0.97959057
H     -1.76865770     1.26182422    -0.22700773
H      1.41612201    -1.00796506    -1.03784280
9
ethanol noise sigma=0.2 parent=7
C     -0.32724025    -0.39836880    -0.32626410
C     -1.07134244     0.42645340     0.30662074
O      1.16428427    -0.29731741    -0.65222274
H      0.02368792    -1.23488271     0.52648153
H     -0.62938499    -0.91125836    -1.06434335
H     -1.45151356     0.36924924     1.17866905
H     -0.04741806     1.39656567     0.64909303
H     -1.33754606     1.22708340    -0.24474470
H      1.58829561    -0.91453581    -0.75552193
9
ethanol noise sigma=0.2 parent=7
C      0.22712008    -0.09647158    -0.11454025
C     -1.32204337     0.54281535     0.98631183
O      0.68904632    -0.01383091    -0.32247930
H      0.07521534    -1.06042387     0.95609248
H     -0.75636750    -0.74772954    -0.69965708
H     -1.59384448     0.50551808     1.11127626
H     -0.27104880     1.55507131     1.05647940
H     -1.46160150     1.42721916    -0.16894721
H      1.66743039    -1.46831921    -0.90319315
9
ethanol noise sigma=0.2 parent=7
C     -0.41524525    -0.62373931    -0.32601297
C     -0.86917800     0.58918271     0.21861465
O      0.76750171     0.14122157    -0.37075422
H      0.03264322    -1.53056603     0.48019420
H     -0.49553664    -0.85003774    -0.58531202
H     -1.96447837     0.38756235     1.06704839
H     -0.62610448     1.73903390     0.87307222
H     -1.29851567     1.71875786    -0.19307818
H      1.53971301    -1.08165500    -0.91969110
9
ethanol noise sigma=0.2 parent=7
C      0.14240100    -0.64222931     0.02844343
C     -1.17891559     0.85384693     0.66316262
O      1.16962874    -0.28039375    -0.71944213
H      0.02869402    -1.51338778     0.48672797
H     -0.83863199    -0.52719184    -0.58311427
H     -1.49094209     0.23702316     1.30230262
H     -0.29206548     1.88461543     1.08969889
H     -1.77676421     1.08639979    -0.28509898
H      1.26107983    -1.04989366    -0.97617809
9
ethanol noise sigma=0.2 parent=7
C     -0.17292945    -0.46425740    -0.21968552
C     -0.88661931     1.07041698     0.65274253
O      1.15973432    -0.20464260    -0.31083389
H      0.16026363    -1.09255164     0.67115922
H     -1.03463683    -1.02713453    -0.60492634
H     -1.78423171     0.27893735     1.68709050
H     -0.25477003     1.54918944     0.89546084
H     -1.85753381     1.61338114     0.01886612
H      1.67232380    -0.95654370    -0.98683729
9
ethanol noise sigma=0.2 parent=7
C     -0.03785406    -0.39100326     0.07964769
C     -1.06509518     0.90013560     0.37104839
O      0.64522391     0.00793355    -0.75348519
H      0.17569801    -1.28278016     0.52839615
H     -0.78780020    -0.80072635    -0.62383595
H     -1.91792395     0.19604442     1.57212058
H     -0.29896399     1.85078788     0.99018585
H     -1.26022194     1.46729061    -0.22402313
H      1.50616342    -1.19798799    -0.56316698
9
ethanol noise sigma=0.2 parent=7
C     -0.51736115    -0.31058119    -0.01846398
C     -1.12042739     0.23867541     0.77254005
O      0.95667734    -0.16171310    -0.62575919
H      0.08053797    -1.40373131     0.86706547
H     -0.90730203    -0.44057400    -0.99711179
H     -1.92278691     0.25611228     1.27154873
H     -0.39614752     1.25816227     0.95993233
H     -1.61289007     0.97253248    -0.16537405
H      1.40920031    -0.74278815    -0.66236565
9
ethanol noise sigma=0.2 parent=7
C     -0.23225492    -0.81254013     0.10426571
C     -0.79227488     0.83583486     0.81788241
O      0.98244031    -0.18441856    -0.39538971
H     -0.10404104    -1.21492370     0.47447446
H     -0.61442900    -1.20799645    -0.98693717
H     -1.78498667     0.19442168     1.57987539
H     -0.25433668     1.37907477     1.07590043
H     -1.77885770     1.31280843    -0.29116172
H      1.39328913    -0.97366786    -0.68344688
9
ethanol parent 8 Properties=species:S:1:pos:R:3 pbc="F F F"
C      0.34591059     0.32481943     0.35584958
C     -1.11629360     0.01117093     0.60141086
O      0.77371095    -0.34691359    -0.83492758
H      0.35506270     1.42768426     0.25112467
H      1.02599711     0.15081666     1.22998147
H     -1.59978327     0.67961095     1.35488599
H     -1.70507852     0.32179181    -0.27084744
H     -1.37665578    -1.09215850     0.83509629
H      0.19802233     0.01375074    -1.55392842
9
ethanol strain 0.9 parent=8
C      0.27688500     0.30889941     0.34213846
C     -1.03909877     0.02661576     0.56314361
O      0.66190533    -0.29566031    -0.72956098
H      0.28512190     1.30147775     0.24788604
H      0.88896287     0.15229691     1.12885716
H     -1.47423947     0.62821177     1.24127123
H     -1.56900520     0.30617455    -0.22188886
H     -1.27342473    -0.96638073     0.77346050
H      0.14378557     0.02893758    -1.37666174
9
ethanol strain 1.1 parent=8
C      0.41493618     0.34073945     0.36956070
C     -1.19348843    -0.00427390     0.63967811
O      0.88551657    -0.39816687    -0.94029418
H      0.42500350     1.55389077     0.25436330
H      1.16303135     0.14933641     1.33110578
H     -1.72532707     0.73101013     1.46850075
H     -1.84115184     0.33740907    -0.31980602
H     -1.47988683    -1.21793627     0.89673208
H      0.25225909    -0.00143610    -1.73119510
9
ethanol noise sigma=0.12 parent=8
C      0.43880952     0.43251493     0.53795261
C     -0.87081513     0.25067023     0.87169128
O      0.82159369    -0.47101547    -0.96483255
H      0.39337933     1.37778767     0.32750620
H      0.95130231     0.23604122     1.28711647
H     -1.76391835     0.95660938     1.14469692
H     -1.73562100     0.46806934    -0.31353687
H     -1.33015323    -1.07574288     0.79714510
H      0.13857111     0.24705752    -1.43072438
9
ethanol noise sigma=0.12 parent=8
C      0.32181557     0.48488489     0.28090977
C     -1.00689052    -0.08219935     0.62661056
O      0.57265711    -0.63292511    -1.06877358
H      0.38568440     1.55771990     0.26555720
H      1.04281010    -0.04503997     1.25490392
H     -1.46132536     0.59474929     1.18484379
H     -1.83630317     0.33161460    -0.32738623
H     -1.13550229    -0.95601441     0.89120002
H      0.28939526    -0.00513188    -1.67428993
9
ethanol noise sigma=0.12 parent=8
C      0.31599927     0.27798647     0.28606371
C     -1.08169688    -0.01304387     0.52256839
O      0.93227006    -0.36520583    -0.76648134
H      0.27449728     1.66396455     0.19303241
H      1.19664308     0.08979284     1.28452582
H     -1.70799227     0.63701973     1.29058581
H     -1.67839899     0.40216585    -0.05348453
H     -1.47092378    -0.92757707     1.00405322
H      0.08309568    -0.01698822    -1.59086340
9
ethanol noise sigma=0.12 parent=8
C      0.38421046     0.33879351     0.10968742
C     -0.84699381     0.15082834     0.50850579
O      0.80089320    -0.32696323    -0.78332110
H      0.38226740     1.22447617     0.23303236
H      0.98723003     0.24410384     1.10066649
H     -1.52898304     0.48901180     1.39470523
H     -1.55517137     0.11801543    -0.29290268
H     -1.45565450    -1.17260939     0.90267115
H      0.17468083     0.18845507    -1.55956654
9
ethanol noise sigma=0.12 parent=8
C      0.39259557     0.37828154     0.35664293
C     -1.18701027    -0.00160520     0.68672681
O      0.90326783    -0.50092864    -0.85225714
H      0.44320308     1.62323569     0.16196986
H      1.04088042     0.16830612     1.21784235
H     -1.66244326     0.60086458     1.23436197
H     -1.56852135     0.29650439    -0.11799324
H     -1.56385007    -1.04969835     0.90042713
H     -0.06436921    -0.15959257    -1.42180500
9
ethanol noise sigma=0.12 parent=8
C      0.27199243     0.26649504     0.31037600
C     -1.10690236     0.12788901     0.59794639
O      0.72354466    -0.49978947    -0.91626223
H      0.34572854     1.54633732     0.54600280
H      1.12458006     0.38483822     1.14130847
H     -1.57941787     0.78729218     1.19356967
H     -1.64587648     0.35696433    -0.32990660
H     -1.43330989    -1.20111432     0.88630142
H      0.36342166     0.08002569    -1.54089352
9
ethanol noise sigma=0.12 parent=8
C      0.41994978     0.44413282     0.48164166
C     -1.14616874    -0.00996060     0.67990693
O      0.86367057    -0.36258359    -0.94947426
H      0.28681819     1.24857548     0.29308813
H      1.03955032     0.06803933     1.00261263
H     -1.47037375     0.88362995     1.25265290
H     -1.80351999     0.28951195    -0.17791620
H     -1.25673913    -1.11804108     0.55990795
H      0.24265430     0.16718914    -1.49461729
9
ethanol noise sigma=0.12 parent=8
C      0.43898276     0.26746387     0.53337180
C     -0.97240842     0.23050924     0.49242657
O      0.82098444    -0.49126748    -0.81394483
H      0.33825439     1.49182486     0.03337827
H      0.96807365     0.31166582     1.30440687
H     -1.53893575     0.57758453     1.25024094
H     -1.60773559     0.29536154    -0.15328587
H     -1.28538614    -1.06447053     0.76202900
H      0.40833537     0.03563415    -1.35578986
9
ethanol noise sigma=0.2 parent=8
C      0.26860798     0.40319664     0.32646304
C     -0.97523270     0.18173252     0.45528428
O      0.84750527    -0.21722636    -0.75922081
H      0.26548385     1.56491747     0.11355801
H      1.03004454     0.15071163     1.13192898
H     -1.66297001     0.79994241     1.32345361
H     -1.73871643     0.13154745    -0.43900493
H     -1.65456855    -1.14012486     0.85200559
H      0.29662134    -0.40861319    -1.38896913
9
ethanol noise sigma=0.2 parent=8
C      0.25079995     0.50960231     0.29428046
C     -1.30014562     0.34368887     0.09547131
O      0.72610110    -0.61736458    -0.76906641
H      0.17045833     1.36964354     0.21720693
H      1.13794580    -0.34672387     1.52269496
H     -1.49191510     0.52431073     1.42892492
H     -1.68501550     0.32581016    -0.31968771
H     -1.62821032    -0.70921384     0.83532974
H      0.66738728    -0.03680202    -1.66750928
9
ethanol noise sigma=0.2 parent=8
C      0.43098668     0.69717062     0.47480331
C     -1.20577215     0.11503289     1.17118938
O      0.60925929    -0.19660879    -0.74777546
H      0.40996061     1.63721067     0.38853459
H      1.09359747     0.09207763     1.45064125
H     -1.68907278     0.31447424     1.56145921
H     -1.47809913     0.03821800    -0.71941121
H     -1.47866680    -1.16153755     0.78790744
H      0.10945643     0.15170701    -1.73845784
9
ethanol noise sigma=0.2 parent=8
C      0.15768037     0.09203321     0.42500401
C     -1.31712971     0.08624606     0.47084277
O      0.84258484    -0.09862731    -0.98511165
H      0.40853846     1.39770603     0.03383242
H      1.10718354    -0.16820301     0.91465305
H     -1.74431112     0.54298051     1.55068172
H     -1.58596828     0.21485729    -0.33663489
H     -1.35814480    -1.03190561     0.79029999
H      0.39052337    -0.01720105    -1.37623993
9
ethanol noise sigma=0.2 parent=8
C      0.40989935     0.07137954     0.08648210
C     -0.85697867    -0.08410029     0.32431073
O      1.00207575    -0.55525207    -0.55097536
H      0.30562970     1.52145894     0.18878266
H      0.68507999    -0.20348266     0.93460864
H     -1.12068914     0.69224621     1.04391913
H     -1.44233428     0.17377112    -0.86342400
H     -1.08217594    -0.89384130     0.76466820
H      0.46654785     0.07430709    -1.63232189
9
ethanol noise sigma=0.2 parent=8
C      0.15595630     0.40574706     0.37216247
C     -1.14338321    -0.16454770     0.32103478
O      1.01490570    -0.73815112    -0.54177743
H      0.29123487     1.51921281    -0.15616563
H      1.27735038     0.23772034     1.23672017
H     -1.46650644     0.80552408     1.23335719
H     -1.35317141    -0.13663205    -0.35227547
H     -1.66939737    -0.93505716     0.77826550
H     -0.08474491    -0.17755440    -1.52274005
9
ethanol noise sigma=0.2 parent=8
C      0.53349947     0.61789769     0.45178144
C     -1.19121045     0.02139620     0.22651522
O      0.66930709    -0.54207321    -0.66825828
H      0.29796451     1.26967988     0.37771333
H      0.93060011     0.29559209     1.47782563
H     -1.43150577     0.52633666     1.05345445
H     -1.96401807     0.09271250    -0.15942453
H     -1.47706260    -1.09844119     1.11941895
H      0.03901485     0.26163676    -1.55092141
9
ethanol noise sigma=0.2 parent=8
C      0.17838318     0.17420223     0.16311296
C     -1.11483024    -0.09483304     0.61613360
O      0.91041179    -0.07102391    -0.70845089
H      0.05140761     1.63398782     0.32608820
H      0.99505554    -0.06375500     1.22864713
H     -1.79999439     0.60237826     1.31229780
H     -1.38251073     1.00084178    -0.07282334
H     -1.17476001    -1.22141932     0.99892486
H     -0.07438076     0.00651960    -1.43521914
9
ethanol parent 9 Properties=species:S:1:pos:R:3 pbc="F F F"
C      0.54015307     0.17856406     0.06845232
C     -0.32728933     1.03365372    -0.77083483
O     -0.12866523    -1.12192875     0.60401198
H      1.24882593    -0.35950419    -0.44588025
H      0.89508654     0.72826666     0.96049187
H     -1.28219408     0.53741554    -1.10863492
H     -0.76343808     1.86929784    -0.19215677
H      0.29271786     1.46365765    -1.58787431
H     -0.88613976    -0.87674018     1.15600198
9
ethanol strain 0.9 parent=9
C      0.48157173     0.19907079     0.04698017
C     -0.29912643     0.96865149    -0.70837827
O     -0.12036474    -0.97137274     0.52898386
H      1.11937730    -0.28519063    -0.41591915
H      0.80101185     0.69380313     0.84981576
H     -1.15854071     0.52203712    -1.01239835
H     -0.69166031     1.72073119    -0.18756801
H      0.25888004     1.35565502    -1.44371380
H     -0.80209182    -0.75070302     1.02577486
9
ethanol strain 1.1 parent=9
C      0.59873441     0.15805733     0.08992447
C     -0.35545223     1.09865595    -0.83329139
O     -0.13696572    -1.27248476     0.67904010
H      1.37827456    -0.43381775    -0.47584135
H      0.98916123     0.76273019     1.07116798
H     -1.40584745     0.55279396    -1.20487149
H     -0.83521585     2.01786449    -0.19674553
H      0.32655568     1.57166028    -1.73203482
H     -0.97018770    -1.00277734     1.28622910
9
ethanol noise sigma=0.12 parent=9
C      0.42831600     0.02868145     0.14542371
C     -0.46622192     0.83994811    -0.85973660
O     -0.19123502    -1.25326163     0.48117383
H      1.30992342    -0.47999629    -0.47302800
H      0.98263002     0.68399551     0.93206574
H     -1.24055315     0.62142836    -1.08948248
H     -0.79243928     1.61863869    -0.32100429
H      0.10967321     1.47171606    -1.54499861
H     -0.81050859    -0.89239960     1.04255620
9
ethanol noise sigma=0.12 parent=9
C      0.67633890     0.18346978     0.09214895
C     -0.33067532     0.69657118    -0.69377090
O     -0.16383162    -1.12175584     0.67741088
H      1.08473323    -0.57635177    -0.52116591
H      0.81098927     0.86728569     0.78195451
H     -1.32613568     0.54028561    -1.07944849
H     -0.86651321     1.96433214    -0.14465851
H      0.24721180     1.44335508    -1.40655465
H     -0.79935494    -0.92480614     1.26343875
9
ethanol noise sigma=0.12 parent=9
C      0.49062649    -0.08048220     0.06926394
C     -0.32897419     1.15922241    -0.85230700
O     -0.18669802    -1.15183079     0.64962462
H      1.15775308    -0.33623792    -0.32329217
H      0.98727490     0.70952675     0.78169153
H     -1.31331616     0.58937788    -1.12732836
H     -0.97535359     1.73511355    -0.05503113
H      0.33959764     1.45382162    -1.45635284
H     -0.81866320    -0.97153097     1.33823054
9
ethanol noise sigma=0.12 parent=9
C      0.44738346     0.23078135     0.26011853
C     -0.41436551     1.10075885    -1.16458507
O      0.00330561    -1.08592257     0.45502456
H      1.35160308    -0.31219341    -0.33416142
H      0.90663409     0.68667347     0.89764806
H     -1.32168074     0.53446662    -1.15985184
H     -0.82015642     1.89114922    -0.02411528
H      0.18168037     1.53876293    -1.61773504
H     -0.89593882    -0.76784963     1.20951375
9
ethanol noise sigma=0.12 parent=9
C      0.47390634     0.19020508    -0.05748266
C     -0.39844339     1.02551430    -0.72285442
O      0.01563684    -1.27601005     0.62354360
H      1.33963169    -0.30227817    -0.48691099
H      0.87260327     0.65370712     0.79204588
H     -1.41612731     0.55960068    -1.29337463
H     -0.92575501     1.87452735    -0.41541553
H      0.25513102     1.28713325    -1.68727364
H     -0.98074259    -0.51178548     1.06109830
9
ethanol noise sigma=0.12 parent=9
C      0.58096625     0.06833625     0.19346140
C     -0.22490208     1.13983440    -0.71934133
O     -0.21724952    -0.96387985     0.78564769
H      1.21963382    -0.41984575    -0.25398321
H      1.06486000     0.65944721     1.01865201
H     -1.37080068     0.53818887    -1.06319394
H     -0.77293999     1.66674651     0.00305079
H      0.36473883     1.61838219    -1.53354022
H     -0.94654154    -1.10145480     1.12884986
9
ethanol noise sigma=0.12 parent=9
C      0.52811956     0.28395520    -0.04274087
C     -0.39378162     0.87458136    -1.02199873
O     -0.31440890    -1.31801867     0.56920065
H      1.30029883    -0.34185652    -0.51853350
H      1.05610447     0.55725514     1.13892812
H     -1.29182655     0.29329240    -1.04624656
H     -0.96575166     1.95475500    -0.12233977
H      0.45099166     1.45423565    -1.64442770
H     -0.99410131    -0.82158005     1.26280046
9
ethanol noise sigma=0.12 parent=9
C      0.54905151     0.47271063     0.02676880
C     -0.34391680     1.12599421    -0.93663642
O     -0.17782348    -1.26446902     0.57400285
H      1.22780347    -0.63893030    -0.50047840
H      0.68254322     0.65769899     0.85401017
H     -1.06946486     0.35887129    -0.99979067
H     -0.86056843     1.75621486    -0.27212044
H      0.37931438     1.56231787    -1.55033408
H     -0.95528510    -0.94437841     1.17621663
9
ethanol noise sigma=0.2 parent=9
C      0.69145847    -0.03264841     0.02749323
C     -0.07678026     1.19204419    -0.70604480
O     -0.23387118    -1.03971028     0.55113230
H      1.28612205    -0.24020034    -0.18707825
H      0.79670345     0.60807973     0.90060966
H     -1.43355396     0.39721114    -1.10996557
H     -0.72031755     2.16151736    -0.21517675
H      0.23720845     1.50908377    -1.71301393
H     -0.78057061    -0.81962582     1.05626589
9
ethanol noise sigma=0.2 parent=9
C      0.35777138     0.13591657     0.12288701
C     -0.37666930     0.64296046    -1.20148323
O     -0.57153605    -0.85993255     0.71216481
H      1.40924796    -0.13619149    -0.21204301
H      0.68395785     0.45252306     1.12141415
H     -1.02454725     0.64312003    -1.11163996
H     -0.58996913     1.79219396    -0.72174326
H      0.41075317     1.59045667    -1.60777704
H     -0.87400187    -0.91492456     1.08549425
9
ethanol noise sigma=0.2 parent=9
C      0.58431180    -0.06029974    -0.07510358
C     -0.37302765     0.73723691    -0.76653090
O     -0.01339062    -1.17049723     0.66454841
H      1.40700993    -0.13576767    -0.46123229
H      0.72579924     0.61528655     0.56016822
H     -1.21231394     0.41290706    -0.95888249
H     -0.96543324     1.96375337    -0.23071366
H      0.50805202     1.43275472    -1.59614254
H     -0.91808590    -0.89207791     0.96982636
9
ethanol noise sigma=0.2 parent=9
C      0.56088988     0.10045630     0.33647360
C     -0.60508289     0.99230800    -0.64982118
O     -0.07052190    -1.14669011     0.85097915
H      0.99983259    -0.38421468    -0.26238412
H      0.83418094     0.68916279     1.53722846
H     -0.95930720     0.81081537    -1.43270704
H     -0.91402541     1.72420423     0.03446795
H      0.12498258     1.72203928    -1.72138014
H     -0.98725907    -0.83192061     1.06020634
9
ethanol noise sigma=0.2 parent=9
C      0.45188766     0.11090232     0.09809064
C     -0.06314943     1.19109112    -0.50749929
O      0.15286110    -1.41437716     0.72867277
H      1.45399115    -0.14397449    -0.53542755
H      0.67075550     0.81717564     0.84163190
H     -1.20249711     0.49831297    -0.73969087
H     -0.63287447     1.74463300    -0.25241056
H      0.28706063     1.54515902    -1.36717557
H     -0.82563179    -1.09936338     1.14822975
9
ethanol noise sigma=0.2 parent=9
C      0.53720381     0.31179709    -0.07025071
C     -0.52368071     1.17062180    -0.87490458
O     -0.06038281    -1.24265074     0.55733074
H      0.97408548    -0.11910421    -0.30987079
H      0.45449246     0.52501731     0.85810727
H     -0.87581485     0.62994150    -1.00210471
H     -1.27216759     1.68514616    -0.09014496
H      0.43548085     1.36368837    -1.45537742
H     -0.77750946    -0.88204249     1.47846882
9
ethanol noise sigma=0.2 parent=9
C      0.61985969     0.14410482     0.09860525
C     -0.35549338     1.41567317    -0.93554992
O     -0.14887254    -0.92698812     0.28228284
H      1.08089509    -0.24749330    -0.59147594
H      0.62386381     0.93886151     0.91916477
H     -1.28483587     0.48728229    -1.19223840
H     -0.95061586     1.85009936    -0.26780510
H      0.33953561     1.53067161    -1.57047500
H     -0.63263536    -0.95451391     1.10446875
9
ethanol noise sigma=0.2 parent=9
C      0.36089035     0.34713755    -0.32924010
C     -0.04497620     1.36427096    -0.71323444
O      0.07631005    -0.78819140     0.41246790
H      1.33339197    -0.14158615    -0.27377768
H      1.03781521     0.59770998     1.25111882
H     -1.04838121     0.42292350    -0.96923952
H     -1.32842551     1.91987450    -0.11603268
H      0.22620119     1.63455023    -1.21918622
H     -1.08929585    -0.47404569     1.19366859
