9
malonaldehyde scan delta=-0.758
O     -1.59781273     0.54323120    -0.29079369
C     -0.88976757    -0.56194816    -0.31174501
C      0.38397220    -0.66136713     0.14263514
C      1.03909213     0.49329596     0.69047906
O      0.52262036     1.59948030     0.78392748
H     -1.03575574     1.24261983     0.10334775
H     -1.41771195    -1.41090021    -0.73198933
H      0.91185588    -1.59647442     0.09805983
H      2.07265115     0.33859321     1.03989297
9
malonaldehyde scan-jitter delta=-0.795
O     -1.55031106     0.52771153    -0.27708036
C     -0.87838201    -0.59548913    -0.34921351
C      0.37060763    -0.64148990     0.12543796
C      1.01940749     0.40628934     0.67857389
O      0.53199473     1.61282091     0.79680325
H     -1.04559107     1.23580510     0.12831604
H     -1.42178327    -1.47999151    -0.70138904
H      0.87952546    -1.55521576     0.14888424
H      2.09552434     0.36571668     1.09562693
9
malonaldehyde scan-jitter delta=-0.673
O     -1.63087646     0.55084675    -0.28362170
C     -0.91878086    -0.50159379    -0.32916582
C      0.36203481    -0.65333570     0.17356867
C      1.02106073     0.47530894     0.70560233
O      0.47985193     1.57630273     0.75878043
H     -1.04878576     1.23835184     0.15867401
H     -1.39049112    -1.41022826    -0.73873039
H      0.93808641    -1.58362243     0.12479610
H      2.11408040     0.30834766     0.97230732
9
malonaldehyde scan-jitter delta=-0.829
O     -1.59846681     0.54561504    -0.28219032
C     -0.90773228    -0.56892677    -0.29498291
C      0.40234895    -0.62143776     0.07764676
C      0.98963237     0.53715420     0.70872502
O      0.54642341     1.59093526     0.76970282
H     -1.02976162     1.21442621     0.05744290
H     -1.45102904    -1.40740442    -0.71287359
H      0.96139366    -1.58531978     0.11223534
H      2.12329538     0.31529354     1.01111423
9
malonaldehyde scan-jitter delta=-0.868
O     -1.61395068     0.54034448    -0.23009661
C     -0.90023279    -0.52273476    -0.32592484
C      0.39871468    -0.64092762     0.15862371
C      1.06162352     0.47262478     0.73416348
O      0.55205013     1.57842394     0.79910038
H     -1.06795056     1.24546684     0.06821516
H     -1.39616095    -1.32196908    -0.68786413
H      0.93377926    -1.62356057     0.10946757
H      2.10818783     0.33594172     1.04377133
9
malonaldehyde scan delta=-0.710
O     -1.59734758     0.54243416    -0.29082595
C     -0.89036402    -0.56027773    -0.31153472
C      0.38462820    -0.66089803     0.14300471
C      1.03889678     0.49244279     0.69018312
O      0.52195463     1.59972850     0.78374113
H     -1.02083436     1.26057779     0.11365262
H     -1.41783064    -1.41104991    -0.73207309
H      0.91200424    -1.59664283     0.09807190
H      2.07269444     0.33845530     1.03987337
9
malonaldehyde scan-jitter delta=-0.646
O     -1.64817786     0.51677154    -0.34627653
C     -0.83292995    -0.54609876    -0.28979399
C      0.37854724    -0.70471798     0.14828384
C      1.01980211     0.46334800     0.69184545
O      0.52524918     1.59431372     0.76051307
H     -1.05041039     1.26076741     0.15032718
H     -1.46595994    -1.43076537    -0.73694383
H      0.90724210    -1.61442573     0.15592710
H      2.08468841     0.30889380     0.98340944
9
malonaldehyde scan-jitter delta=-0.741
O     -1.60251208     0.58681822    -0.28504294
C     -0.95984375    -0.60158603    -0.30784721
C      0.41665651    -0.65666579     0.14748351
C      1.07108667     0.53013039     0.66988721
O      0.53509600     1.57100700     0.75144404
H     -1.00318414     1.21787457     0.11874853
H     -1.40840467    -1.38521128    -0.76658596
H      0.92342872    -1.60040568     0.14265371
H      2.05041187     0.30515468     1.05488000
9
malonaldehyde scan-jitter delta=-0.629
O     -1.62302195     0.50360522    -0.26352380
C     -0.87745243    -0.65362040    -0.33916427
C      0.35138709    -0.64156761     0.18718160
C      1.10064023     0.51362657     0.65730277
O      0.48801646     1.57114643     0.79842331
H     -0.98287172     1.20304511     0.13192997
H     -1.38999496    -1.40157083    -0.63498611
H      0.92806170    -1.59566808     0.11638755
H      2.05636914     0.30547735     1.05253878
9
malonaldehyde scan-jitter delta=-0.752
O     -1.56273881     0.53538603    -0.26305435
C     -0.90163723    -0.51133599    -0.30509103
C      0.40065762    -0.63791306     0.10244237
C      1.03343295     0.54765861     0.69127790
O      0.56403283     1.62625122     0.72890926
H     -0.99961324     1.22792915     0.12148955
H     -1.43029868    -1.41039706    -0.73419943
H      0.91928428    -1.61009223     0.05754268
H      2.04239581     0.36594250     1.09160818
9
malonaldehyde scan delta=-0.633
O     -1.59378635     0.54698233    -0.28829827
C     -0.89131278    -0.55480512    -0.31046672
C      0.38521966    -0.66073321     0.14327067
C      1.03600417     0.49029689     0.68853334
O      0.50907248     1.59589014     0.77788377
H     -0.98858695     1.27107487     0.12854678
H     -1.41615694    -1.40668028    -0.73030357
H      0.91156779    -1.59642649     0.09796373
H      2.06968514     0.34143990     1.03951620
9
malonaldehyde scan-jitter delta=-0.540
O     -1.58680919     0.57225125    -0.25899265
C     -0.93228749    -0.61098466    -0.31200442
C      0.32845032    -0.66890777     0.09892396
C      1.01728307     0.46776129     0.70413326
O      0.48965517     1.56145754     0.77934792
H     -0.89957143     1.28585812     0.07019899
H     -1.41341752    -1.32954736    -0.72522932
H      0.94998777    -1.56312306     0.13361497
H      2.10120899     0.34991939     1.03398671
9
malonaldehyde scan-jitter delta=-0.698
O     -1.60214282     0.55059047    -0.27548724
C     -0.92958295    -0.56321886    -0.31168358
C      0.38845543    -0.67002379     0.16746274
C      1.03288446     0.47903372     0.65142751
O      0.48575050     1.60277851     0.78145904
H     -1.04974813     1.29880397     0.10746853
H     -1.44321466    -1.37323896    -0.69540304
H      0.89022551    -1.60709503     0.06124216
H      2.09411195     0.36858023     1.02635182
9
malonaldehyde scan-jitter delta=-0.678
O     -1.55203581     0.57453982    -0.29200957
C     -0.86966523    -0.60444529    -0.31835057
C      0.39276936    -0.66104591     0.20476914
C      1.04532016     0.50129072     0.64869356
O      0.50344785     1.57238448     0.84834675
H     -1.00105581     1.27464660     0.16502103
H     -1.39645697    -1.44901960    -0.71114795
H      0.93287717    -1.60187591     0.11189259
H      2.07282707     0.29987855     1.02261124
9
malonaldehyde scan-jitter delta=-0.667
O     -1.59316486     0.52938910    -0.27212690
C     -0.86125370    -0.54660253    -0.32164707
C      0.42610491    -0.65660741     0.15387639
C      1.01310082     0.48376745     0.71847643
O      0.53138433     1.59027807     0.77813109
H     -0.98261770     1.24283926     0.12298707
H     -1.43150385    -1.44825326    -0.72573839
H      0.90725387    -1.64034067     0.07411351
H      2.06707246     0.25470830     1.04503630
9
malonaldehyde scan delta=-0.541
O     -1.57912102     0.55438181    -0.28084074
C     -0.89385647    -0.55302527    -0.31096216
C      0.38579629    -0.66393875     0.14265297
C      1.02839593     0.48937008     0.68542311
O      0.49641492     1.59655979     0.77328555
H     -0.94035676     1.27937410     0.14889483
H     -1.42369242    -1.40319359    -0.73223658
H      0.91057779    -1.60040167     0.09655483
H      2.06116777     0.35619321     1.04014819
9
malonaldehyde scan-jitter delta=-0.516
O     -1.57111932     0.57384876    -0.29869908
C     -0.93653884    -0.53417664    -0.35221150
C      0.40202470    -0.68420989     0.11228778
C      1.03722605     0.52303741     0.68071490
O      0.48904274     1.54590433     0.79822179
H     -0.93817095     1.27122357     0.18814619
H     -1.47071528    -1.41833200    -0.73209107
H      0.90171135    -1.67349871     0.10703490
H      2.06025277     0.38651617     1.10134419
9
malonaldehyde scan-jitter delta=-0.481
O     -1.58475783     0.56591599    -0.27324894
C     -0.88876286    -0.55717453    -0.29936486
C      0.41964120    -0.68941070     0.19968083
C      1.04358485     0.49845943     0.61794923
O      0.49609613     1.56728289     0.79051688
H     -0.91168967     1.31387051     0.14390274
H     -1.42593030    -1.39007993    -0.79517858
H      0.89756493    -1.61668509     0.11217930
H      2.04744651     0.37851004     1.03436315
9
malonaldehyde scan-jitter delta=-0.591
O     -1.55346252     0.62093188    -0.23410024
C     -0.86544312    -0.51868348    -0.32194032
C      0.36267746    -0.68931685     0.14852555
C      1.07259797     0.46748867     0.69948311
O      0.45899871     1.56006935     0.79901423
H     -0.96095852     1.25791132     0.20815839
H     -1.42162424    -1.40452798    -0.73912475
H      0.92303800    -1.62163649     0.09827433
H      2.09376884     0.34657403     0.96878304
9
malonaldehyde scan-jitter delta=-0.619
O     -1.59876832     0.57742414    -0.24721384
C     -0.88294925    -0.51020279    -0.34215073
C      0.42416222    -0.65764566     0.16293197
C      0.94258352     0.51614459     0.69241185
O      0.55366455     1.60220571     0.74408637
H     -0.96445414     1.29154242     0.15812875
H     -1.44271655    -1.43523399    -0.68675594
H      0.90341756    -1.60245718     0.08055443
H      2.10311898     0.38965699     1.00949888
9
malonaldehyde scan delta=-0.468
O     -1.57730929     0.55658885    -0.27958261
C     -0.89487657    -0.54793450    -0.31002052
C      0.38694215    -0.66307328     0.14331054
C      1.02688969     0.48694313     0.68422285
O      0.48491290     1.59294535     0.76800691
H     -0.91058538     1.28729558     0.16218432
H     -1.42477520    -1.39768470    -0.73120964
H      0.91135910    -1.59942074     0.09710500
H      2.05996654     0.35915567     1.04046704
9
malonaldehyde scan-jitter delta=-0.554
O     -1.57960671     0.52892552    -0.22395217
C     -0.88157826    -0.55634099    -0.32014546
C      0.40326721    -0.67045419     0.18959034
C      0.99910368     0.44990349     0.72653734
O      0.47214212     1.63554145     0.79440301
H     -0.95132815     1.26901045     0.16366382
H     -1.43138845    -1.38859837    -0.74958449
H      0.90881124    -1.56937619     0.13709253
H      2.03626521     0.35219649     1.03666343
9
malonaldehyde scan-jitter delta=-0.466
O     -1.61780490     0.58472860    -0.26264150
C     -0.87923496    -0.55124291    -0.28391053
C      0.41584459    -0.62827243     0.13820805
C      1.03737093     0.47527956     0.67453472
O      0.51435710     1.59455750     0.76339615
H     -0.89248912     1.30726064     0.13955562
H     -1.44420617    -1.37631571    -0.71542772
H      0.90507148    -1.56354507     0.09413147
H      2.00202561     0.33527887     0.99622448
9
malonaldehyde scan-jitter delta=-0.457
O     -1.54294104     0.57174522    -0.27602139
C     -0.96440423    -0.59225196    -0.31454278
C      0.33353592    -0.63481944     0.14022196
C      1.02259633     0.48504082     0.65571836
O      0.45361826     1.53598577     0.76871117
H     -0.89839763     1.28016751     0.15370840
H     -1.45297787    -1.39016413    -0.80475192
H      0.87822571    -1.61917319     0.08185037
H      2.06650387     0.35338349     1.04513108
9
malonaldehyde scan-jitter delta=-0.444
O     -1.53993609     0.59775193    -0.26015438
C     -0.85741852    -0.49604525    -0.29890791
C      0.34499308    -0.63291490     0.11346304
C      1.08274532     0.53869449     0.66867606
O      0.45191943     1.57228566     0.76605448
H     -0.87214745     1.25023274     0.18864135
H     -1.48686491    -1.36127376    -0.73306854
H      0.91735141    -1.60260452     0.12517725
H      2.07110592     0.40979372     0.98717950
9
malonaldehyde scan delta=-0.378
O     -1.56378955     0.56435647    -0.27246113
C     -0.89834944    -0.54390491    -0.31028019
C      0.38751704    -0.66544168     0.14291027
C      1.01979310     0.48443255     0.68089293
O      0.47220842     1.59322931     0.76329049
H     -0.86364904     1.29487011     0.18185571
H     -1.42846964    -1.39517392    -0.73194857
H      0.91061324    -1.60220801     0.09609761
H      2.05125708     0.37165678     1.04043987
9
malonaldehyde scan-jitter delta=-0.352
O     -1.59094170     0.52397571    -0.25092768
C     -0.94897679    -0.47097420    -0.30752560
C      0.42417410    -0.69443160     0.14880002
C      1.03852056     0.46324238     0.67406010
O      0.51892978     1.63122114     0.78065938
H     -0.80450814     1.23649608     0.19059271
H     -1.43991073    -1.35246186    -0.69865238
H      0.94569646    -1.62011436     0.11294459
H      2.08366440     0.41057634     1.01264781
9
malonaldehyde scan-jitter delta=-0.354
O     -1.58428670     0.57171267    -0.23061523
C     -0.87974090    -0.50263079    -0.36885416
C      0.37936797    -0.65047643     0.15099780
C      0.96305359     0.51745892     0.69125295
O      0.45821306     1.62916194     0.71141249
H     -0.87898874     1.32139124     0.19313547
H     -1.43521027    -1.39978721    -0.73895486
H      0.93663047    -1.61133717     0.11643535
H      1.98864486     0.40853937     1.11368652
9
malonaldehyde scan-jitter delta=-0.463
O     -1.54880020     0.56176075    -0.28851337
C     -0.87735640    -0.56341013    -0.33484221
C      0.32364991    -0.65816344     0.13418549
C      1.01271408     0.48436326     0.65964939
O      0.47782897     1.56083164     0.75982879
H     -0.87209156     1.24362123     0.14549659
H     -1.44624439    -1.41204653    -0.72417260
H      0.89846344    -1.60374288     0.08383325
H      1.97355302     0.36795490     1.01517477
9
malonaldehyde scan-jitter delta=-0.463
O     -1.56858491     0.54137412    -0.25279083
C     -0.89972685    -0.52265678    -0.28683844
C      0.37051780    -0.64098348     0.14977233
C      0.98805465     0.48095334     0.68371501
O      0.51030595     1.58277231     0.81041642
H     -0.84055267     1.23144238     0.15078843
H     -1.41087321    -1.43883395    -0.71766309
H      0.95209171    -1.61025285     0.13832839
H      2.09097511     0.36996652     1.03943908
9
malonaldehyde scan delta=-0.302
O     -1.56016238     0.56675021    -0.27046982
C     -0.89970924    -0.53906458    -0.30953189
C      0.38928167    -0.66456721     0.14380349
C      1.01800699     0.48211587     0.67961586
O      0.46002986     1.59045697     0.75797613
H     -0.82977112     1.29972833     0.19589556
H     -1.43169747    -1.38940414    -0.73166248
H      0.91052137    -1.60225184     0.09605156
H      2.04943966     0.37765930     1.04131840
9
malonaldehyde scan-jitter delta=-0.224
O     -1.55472522     0.58009705    -0.31719357
C     -0.90405675    -0.58926220    -0.31988589
C      0.38269950    -0.71909009     0.10589738
C      1.00606429     0.54692623     0.63801376
O      0.46376643     1.56365048     0.74672485
H     -0.80021585     1.30904258     0.20866892
H     -1.41703471    -1.37213915    -0.79650949
H      0.92210275    -1.60480439     0.10797509
H      2.07453097     0.39012918     1.06203045
9
malonaldehyde scan-jitter delta=-0.283
O     -1.59530612     0.58018441    -0.27374791
C     -0.90230404    -0.50006053    -0.32419202
C      0.36928350    -0.70397425     0.13493545
C      1.05012757     0.43208218     0.68715240
O      0.38404700     1.56974920     0.77110089
H     -0.84592791     1.26366727     0.18484855
H     -1.40202421    -1.34464609    -0.68629617
H      0.93099002    -1.59143447     0.12562671
H      2.01474850     0.34858322     1.08006508
9
malonaldehyde scan-jitter delta=-0.350
O     -1.53447418     0.59300267    -0.26381505
C     -0.92445909    -0.57146764    -0.28139048
C      0.42176646    -0.69818140     0.12161806
C      1.01492019     0.50835501     0.66939971
O      0.43446306     1.62010953     0.77589434
H     -0.85059879     1.27994771     0.22919485
H     -1.47012372    -1.39819041    -0.71818326
H      0.91545295    -1.57436940     0.04472115
H      2.04996793     0.38669416     1.05132630
9
malonaldehyde scan-jitter delta=-0.339
O     -1.54285496     0.53174419    -0.22711548
C     -0.88608795    -0.52224567    -0.32683786
C      0.39470417    -0.62465338     0.14334810
C      1.02386771     0.49161736     0.63062406
O      0.45485307     1.61124746     0.74331977
H     -0.83103620     1.29874591     0.14849724
H     -1.40756824    -1.43002546    -0.71898245
H      0.90651347    -1.61248556     0.09805498
H      2.07205005     0.40206307     1.02840816
9
malonaldehyde scan delta=-0.221
O     -1.54971406     0.57248818    -0.26503524
C     -0.90354663    -0.53438048    -0.30975849
C      0.39023252    -0.66626909     0.14371862
C      1.01296106     0.47858280     0.67679279
O      0.45015036     1.59062190     0.75429389
H     -0.78928866     1.30770384     0.21323789
H     -1.43394400    -1.38745835    -0.73200264
H      0.91020665    -1.60432119     0.09539378
H      2.04253695     0.38821292     1.04146513
9
malonaldehyde scan-jitter delta=-0.152
O     -1.55464797     0.54670531    -0.30888021
C     -0.87501845    -0.56729806    -0.33181750
C      0.40161464    -0.70669983     0.15812150
C      0.98764866     0.44448991     0.65937277
O      0.42461871     1.59770359     0.79683794
H     -0.76906693     1.32165202     0.19477848
H     -1.44117797    -1.38468732    -0.73427896
H      0.91394460    -1.64097487     0.14757622
H      2.00141353     0.38266396     1.06506028
9
malonaldehyde scan-jitter delta=-0.153
O     -1.57334900     0.60269574    -0.30870510
C     -0.92722330    -0.60632688    -0.28020473
C      0.35291527    -0.68859008     0.16507982
C      1.02160825     0.50879099     0.69446448
O      0.47510765     1.57440432     0.74990214
H     -0.76896393     1.32842740     0.23975072
H     -1.45878389    -1.42221475    -0.77152276
H      0.89412756    -1.60923864     0.05771058
H      2.03512710     0.40526146     1.06923732
9
malonaldehyde scan-jitter delta=-0.188
O     -1.56922807     0.58762615    -0.30522391
C     -0.92524879    -0.53308605    -0.33103139
C      0.36496842    -0.66012681     0.11207599
C      1.01437350     0.47345112     0.69012710
O      0.47085987     1.59267987     0.73743939
H     -0.76101308     1.31163938     0.18485898
H     -1.43075241    -1.40782182    -0.80974496
H      0.87944400    -1.61768608     0.07965670
H      1.99438965     0.37571885     1.05226307
9
malonaldehyde scan-jitter delta=-0.221
O     -1.58591648     0.57817920    -0.32784407
C     -0.89040530    -0.55338866    -0.35198103
C      0.42145085    -0.65437080     0.17013198
C      1.02018734     0.48690615     0.66319651
O      0.46070661     1.58600478     0.73303554
H     -0.79707014     1.26738222     0.21032144
H     -1.42292447    -1.38588726    -0.71718411
H      0.89875537    -1.60550025     0.09407267
H      2.09800698     0.34718398     1.09958305
9
malonaldehyde scan delta=-0.147
O     -1.54556777     0.57509332    -0.26279312
C     -0.90535245    -0.52969347    -0.30921831
C      0.39223991    -0.66544052     0.14469142
C      1.01155872     0.47587769     0.67555924
O      0.43921251     1.58891027     0.74972370
H     -0.75658784     1.31377134     0.22714895
H     -1.43624981    -1.38332086    -0.73179415
H      0.90965871    -1.60484276     0.09505129
H      2.04057124     0.39405151     1.04224505
9
malonaldehyde scan-jitter delta=-0.160
O     -1.56947900     0.56292646    -0.25664626
C     -0.89019752    -0.53262348    -0.30471600
C      0.43163463    -0.59006879     0.15484496
C      1.03026106     0.47090232     0.72293788
O      0.43383681     1.60205267     0.71667204
H     -0.83764080     1.37928900     0.25693105
H     -1.41092529    -1.41290771    -0.78211686
H      0.90070374    -1.60323644     0.11459886
H      2.03903455     0.43021410     1.05069705
9
malonaldehyde scan-jitter delta=-0.240
O     -1.53822783     0.60775671    -0.28445666
C     -0.89576290    -0.54800641    -0.33108431
C      0.43530512    -0.63482543     0.15879122
C      1.04861136     0.48524155     0.71394829
O      0.41235938     1.58284721     0.75937918
H     -0.78814274     1.29216259     0.18867600
H     -1.41779790    -1.39869114    -0.72542662
H      0.92359547    -1.61111740     0.09415092
H      2.04306444     0.40507986     1.08043404
9
malonaldehyde scan-jitter delta=-0.034
O     -1.57967496     0.57619714    -0.29984493
C     -0.86404192    -0.58540995    -0.30584214
C      0.37836312    -0.68398694     0.16425040
C      1.02570017     0.44601380     0.68767480
O      0.44613294     1.56527643     0.70503302
H     -0.73480914     1.33269570     0.24081740
H     -1.45349369    -1.34918884    -0.63178833
H      0.91266182    -1.59091776     0.06908545
H      2.01486002     0.44415819     1.10761357
9
malonaldehyde scan-jitter delta=-0.064
O     -1.55483619     0.55369393    -0.29211507
C     -0.92548840    -0.53021392    -0.34834788
C      0.36902256    -0.63954948     0.13744140
C      0.98600668     0.43860135     0.70494079
O      0.40559909     1.58217575     0.77698977
H     -0.74304785     1.31992493     0.23358901
H     -1.46698939    -1.40728614    -0.74814827
H      0.82162074    -1.61975307     0.08957481
H      2.03559360     0.38788058     1.04583637
9
malonaldehyde scan delta=-0.075
O     -1.53909358     0.57885776    -0.25937119
C     -0.90868182    -0.52514765    -0.30928938
C      0.39338602    -0.66606941     0.14495972
C      1.00889900     0.47229685     0.67362346
O      0.43150063     1.58874242     0.74677210
H     -0.72284039     1.32213491     0.24205284
H     -1.43746265    -1.38171675    -0.73183356
H      0.90936028    -1.60616684     0.09459380
H      2.03622285     0.40189746     1.04264950
9
malonaldehyde scan-jitter delta=-0.032
O     -1.53353678     0.62511122    -0.25719397
C     -0.88565860    -0.54526640    -0.30192103
C      0.39973328    -0.67514940     0.09170843
C      0.96653044     0.48351305     0.66991966
O      0.42201118     1.56636826     0.74737687
H     -0.70778961     1.37569930     0.23972982
H     -1.44454462    -1.37537899    -0.69875253
H      0.97664459    -1.59105325     0.05001575
H      2.03545489     0.36646486     1.01239454
9
malonaldehyde scan-jitter delta=-0.130
O     -1.48637291     0.56709323    -0.28207050
C     -0.86892893    -0.52401991    -0.34434648
C      0.39406828    -0.70890187     0.11821734
C      1.01350692     0.39505416     0.69410293
O      0.43822000     1.61306180     0.73425573
H     -0.71098536     1.29181929     0.21369396
H     -1.43507154    -1.38157607    -0.73276874
H      0.94917859    -1.61499089     0.10743985
H      2.04592570     0.40604091     1.05441609
9
malonaldehyde scan-jitter delta=+0.152
O     -1.59157316     0.56167685    -0.22690310
C     -0.91804258    -0.50480399    -0.29572005
C      0.30162215    -0.70589463     0.12445197
C      0.98792583     0.45827171     0.66010060
O      0.40649650     1.56817736     0.68761165
H     -0.66535393     1.36313510     0.26760844
H     -1.44067141    -1.40974335    -0.65950620
H      0.88035849    -1.56402456     0.10309156
H      2.00810467     0.37661437     1.02923167
9
malonaldehyde scan-jitter delta=-0.128
O     -1.55864540     0.53560986    -0.24747751
C     -0.93706739    -0.50311123    -0.31549297
C      0.39680267    -0.66345271     0.13246659
C      1.00510688     0.47661714     0.74204646
O      0.39204365     1.56675411     0.73421582
H     -0.76158386     1.28109174     0.19435919
H     -1.44058952    -1.39923953    -0.72830306
H      0.86495006    -1.63452290     0.12029455
H      2.05708200     0.35340831     1.06568032
9
malonaldehyde scan delta=-0.007
O     -1.53522844     0.58057188    -0.25746721
C     -0.91132834    -0.52070931    -0.30913098
C      0.39549371    -0.66569466     0.14585210
C      1.00793980     0.46921039     0.67245766
O      0.42353854     1.58835609     0.74366923
H     -0.69292585     1.32962584     0.25528414
H     -1.43901104    -1.37900046    -0.73170974
H      0.90865365    -1.60706366     0.09409371
H      2.03412289     0.40771522     1.04337337
9
malonaldehyde scan-jitter delta=-0.040
O     -1.55348494     0.54549772    -0.23753393
C     -0.88629386    -0.59743054    -0.28528352
C      0.37833971    -0.68370254     0.13227630
C      1.03754800     0.50430811     0.67971006
O      0.44394338     1.64907283     0.73985462
H     -0.72658587     1.34203217     0.27307363
H     -1.44700973    -1.38799314    -0.67062910
H      0.89774780    -1.63698132     0.01055410
H      2.05555229     0.44277795     1.00528488
9
malonaldehyde scan-jitter delta=+0.094
O     -1.52078363     0.56746653    -0.25839755
C     -0.93181309    -0.52385455    -0.28598024
C      0.37750542    -0.68870023     0.11297241
C      1.03899963     0.44160820     0.68847788
O      0.38366958     1.52194141     0.72426920
H     -0.68849236     1.35949573     0.27653576
H     -1.43195000    -1.45615091    -0.71985512
H      0.86187483    -1.63047663     0.14506450
H      2.06162128     0.37297499     1.03058916
9
malonaldehyde scan-jitter delta=+0.044
O     -1.51406545     0.57381512    -0.26625609
C     -0.94721759    -0.50692186    -0.29134926
C      0.36939182    -0.72858914     0.19773023
C      0.98479532     0.47955700     0.64477817
O      0.39917056     1.61492138     0.73215212
H     -0.67186069     1.35140997     0.23794673
H     -1.43216985    -1.35777234    -0.69645278
H      0.89878908    -1.60861108     0.06418755
H      2.05573304     0.40898356     1.00177630
9
malonaldehyde scan-jitter delta=-0.017
O     -1.54738220     0.57546916    -0.27672663
C     -0.93447246    -0.57117772    -0.30777143
C      0.38125913    -0.63982003     0.14124305
C      1.03150823     0.43206225     0.68228849
O      0.44383819     1.60914238     0.73406027
H     -0.72073733     1.37820439     0.24824459
H     -1.47584301    -1.38643601    -0.72296479
H      0.88633694    -1.59576680     0.11995837
H      2.03192767     0.43707802     1.03906968
9
malonaldehyde scan delta=+0.056
O     -1.53188255     0.58229588    -0.25575644
C     -0.91439549    -0.51670307    -0.30924375
C      0.39696215    -0.66557610     0.14643668
C      1.00717346     0.46581766     0.67128481
O      0.41806963     1.58856330     0.74166109
H     -0.66495183     1.33862995     0.26817796
H     -1.43982447    -1.37777110    -0.73169617
H      0.90812001    -1.60797161     0.09365595
H      2.03192340     0.41346150     1.04404108
9
malonaldehyde scan-jitter delta=+0.039
O     -1.54669410     0.62885536    -0.23766330
C     -0.91182867    -0.57111535    -0.35115718
C      0.34646788    -0.66754571     0.14483584
C      1.01881885     0.49599954     0.62497902
O      0.37713808     1.56046872     0.75456352
H     -0.65705198     1.30684505     0.24643873
H     -1.42922845    -1.37649215    -0.70211275
H      0.88307177    -1.61286176     0.06325684
H      2.06549691     0.44331217     1.05781777
9
malonaldehyde scan-jitter delta=-0.003
O     -1.50351570     0.62276042    -0.21293440
C     -0.86426179    -0.53858223    -0.33347617
C      0.43501124    -0.67853435     0.09342928
C      0.99337541     0.49611909     0.65721382
O      0.44074802     1.59755777     0.70135150
H     -0.65154960     1.33884885     0.25168965
H     -1.48269113    -1.32996509    -0.75905671
H      0.84704829    -1.58309343     0.08021658
H      2.06732048     0.41024448     1.04351015
9
malonaldehyde scan-jitter delta=+0.026
O     -1.51440812     0.58570347    -0.25247281
C     -0.88207269    -0.54383834    -0.29266938
C      0.40550263    -0.71368019     0.17959341
C      1.03015460     0.51183718     0.65820824
O      0.38514263     1.68051208     0.71117657
H     -0.68871949     1.35523264     0.25520010
H     -1.42748267    -1.41750281    -0.78260182
H      0.89170157    -1.58778231     0.09266674
H      2.06774730     0.40558741     1.04968177
9
malonaldehyde scan-jitter delta=+0.091
O     -1.55909075     0.53851354    -0.29212106
C     -0.93821511    -0.45785117    -0.34778859
C      0.37053792    -0.62452740     0.12647817
C      1.02480530     0.39753051     0.64215637
O      0.43338266     1.53762570     0.74698976
H     -0.66396184     1.32171711     0.25988383
H     -1.41877041    -1.37942236    -0.70230586
H      0.93141691    -1.56196464     0.08084705
H      2.03687696     0.38172036     1.06246689
9
malonaldehyde scan delta=+0.113
O     -1.53049709     0.58288091    -0.25508162
C     -0.91674395    -0.51379872    -0.30937261
C      0.39842695    -0.66496783     0.14714748
C      1.00732589     0.46299275     0.67060632
O      0.41453859     1.58931409     0.74052526
H     -0.64148860     1.34944464     0.27984263
H     -1.44024891    -1.37713280    -0.73168992
H      0.90757887    -1.60851764     0.09330966
H      2.03095477     0.41680471     1.04454684
9
malonaldehyde scan-jitter delta=+0.228
O     -1.55195350     0.60121666    -0.26357313
C     -0.92201449    -0.50707041    -0.33176528
C      0.37821934    -0.68380888     0.13073144
C      1.02573232     0.45109360     0.65311770
O      0.43881971     1.60966804     0.73544234
H     -0.56808672     1.31767236     0.32758302
H     -1.43293190    -1.34746736    -0.74116500
H      0.94209733    -1.63853204     0.11673885
H      2.03825762     0.44334032     1.02957390
9
malonaldehyde scan-jitter delta=+0.055
O     -1.51829987     0.55894803    -0.26627615
C     -0.92461812    -0.53239511    -0.32451948
C      0.36134027    -0.66915427     0.19014995
C      1.09198007     0.43749385     0.64750503
O      0.42418552     1.60392318     0.70145728
H     -0.71087827     1.35687855     0.31953688
H     -1.39798431    -1.37768227    -0.69030869
H      0.90221990    -1.65065402     0.08902315
H      2.06168954     0.42043232     1.02730846
9
malonaldehyde scan-jitter delta=+0.012
O     -1.52914361     0.59270026    -0.25118188
C     -0.90790661    -0.50272122    -0.27759117
C      0.40216569    -0.66974794     0.15767725
C      1.02483053     0.41056656     0.70477617
O      0.46519871     1.58989220     0.75875066
H     -0.66381167     1.36944515     0.25417717
H     -1.43499938    -1.36003375    -0.75542799
H      0.87421808    -1.61901970     0.07624550
H      2.02110692     0.38368273     1.07686666
9
malonaldehyde scan-jitter delta=+0.057
O     -1.53877503     0.59594159    -0.30402890
C     -0.93453515    -0.46613517    -0.33586371
C      0.40677263    -0.60248778     0.14689265
C      1.05226292     0.43591582     0.65605323
O      0.41252314     1.57287707     0.75057335
H     -0.69498035     1.31739086     0.31884149
H     -1.43691715    -1.36278705    -0.68152255
H      0.85493485    -1.69835299     0.14610917
H      1.98951038     0.41882112     0.99532111
9
malonaldehyde scan delta=+0.164
O     -1.52994461     0.58184651    -0.25514279
C     -0.91904867    -0.51144096    -0.30962738
C      0.39981497    -0.66434414     0.14783334
C      1.00775933     0.46039805     0.67009376
O      0.41347796     1.59084241     0.74052351
H     -0.62222012     1.36266116     0.29055135
H     -1.44022510    -1.37716810    -0.73169014
H      0.90735098    -1.60863760     0.09319248
H      2.03052716     0.41807834     1.04471742
9
malonaldehyde scan-jitter delta=+0.287
O     -1.60709802     0.57898132    -0.24176862
C     -0.94441234    -0.58828118    -0.30112498
C      0.45604762    -0.71698904     0.16997820
C      1.01527878     0.40409479     0.69959616
O      0.41822119     1.58583017     0.77806861
H     -0.62199351     1.40030748     0.36843828
H     -1.43439766    -1.36452711    -0.74933298
H      0.95298937    -1.64582419     0.07757039
H      2.02863192     0.41259603     1.02331583
9
malonaldehyde scan-jitter delta=+0.107
O     -1.50362894     0.57252727    -0.31971102
C     -0.88424125    -0.45952290    -0.32637519
C      0.44054930    -0.68034921     0.11801609
C      0.98010115     0.50951528     0.71112135
O      0.43433512     1.56049100     0.76451066
H     -0.65480260     1.38142225     0.27418439
H     -1.45731150    -1.39285369    -0.79388244
H      0.85468235    -1.61314033     0.06095357
H      2.05519159     0.45332004     0.99792460
9
malonaldehyde scan-jitter delta=+0.204
O     -1.57517323     0.57674686    -0.19681552
C     -0.94274549    -0.49662785    -0.35938898
C      0.37228710    -0.65019238     0.14012635
C      1.02225999     0.46359048     0.66910015
O      0.41181416     1.63134475     0.73788942
H     -0.59710100     1.35392727     0.29251678
H     -1.47323941    -1.44097664    -0.74534898
H      0.90929138    -1.62400587     0.10839320
H      2.00542177     0.37510838     0.99928069
9
malonaldehyde scan-jitter delta=+0.136
O     -1.51155092     0.55569648    -0.25631772
C     -0.96291515    -0.53905041    -0.31199735
C      0.43035777    -0.69829794     0.10228453
C      1.00529315     0.46284992     0.65487078
O      0.44780491     1.53700131     0.71350197
H     -0.62454326     1.33400128     0.29823854
H     -1.44248249    -1.38705979    -0.66177572
H      0.87518042    -1.61893927     0.10544959
H      2.00552783     0.41971829     1.06793293
9
malonaldehyde scan delta=+0.214
O     -1.53023317     0.58123304    -0.25541142
C     -0.92134522    -0.50923866    -0.30991957
C      0.40089864    -0.66364762     0.14842342
C      1.00831729     0.45805524     0.66969378
O      0.41290866     1.59237665     0.74070855
H     -0.60282715     1.37512817     0.30111175
H     -1.44001031    -1.37749657    -0.73169473
H      0.90707111    -1.60875036     0.09305757
H      2.03012421     0.41955367     1.04494985
9
malonaldehyde scan-jitter delta=+0.213
O     -1.52616029     0.60109453    -0.26908644
C     -0.93159924    -0.45394817    -0.29809561
C      0.42752734    -0.68560114     0.13952021
C      1.04091633     0.45850398     0.63010866
O      0.38362781     1.58807178     0.78553873
H     -0.58904716     1.35002747     0.29840241
H     -1.44022498    -1.42983344    -0.73479416
H      0.89447488    -1.61534921     0.06413818
H      2.03932090     0.40511483     1.01971828
9
malonaldehyde scan-jitter delta=+0.145
O     -1.47665689     0.56798332    -0.29839958
C     -0.88672995    -0.46888938    -0.34089339
C      0.38586862    -0.67107314     0.13426201
C      0.96465549     0.42352307     0.73170571
O      0.39242930     1.57420248     0.76167844
H     -0.61949573     1.35273750     0.26739439
H     -1.42637205    -1.37372634    -0.70043908
H      0.89190549    -1.57205351     0.09524791
H      2.01184509     0.43091909     1.05302220
9
malonaldehyde scan-jitter delta=+0.167
O     -1.52429317     0.55627525    -0.26074661
C     -0.92954052    -0.48958997    -0.27370087
C      0.42354788    -0.64352505     0.17927417
C      1.04303500     0.44414144     0.63249684
O      0.41549369     1.63544336     0.70088993
H     -0.63376239     1.37479127     0.28231801
H     -1.41238238    -1.37729454    -0.70858078
H      0.91392090    -1.59869516     0.05561742
H      2.00863802     0.35852260     1.01973519
9
malonaldehyde scan-jitter delta=+0.304
O     -1.54876026     0.58942035    -0.29202778
C     -0.87014002    -0.47472051    -0.34250042
C      0.34367171    -0.71373443     0.15560713
C      0.96918870     0.44730651     0.68452968
O      0.42263684     1.61242721     0.70009005
H     -0.58504235     1.39390364     0.32765400
H     -1.41715105    -1.41763076    -0.80680928
H      0.91617035    -1.56270416     0.06810223
H      2.00484875     0.42295842     1.07559770
9
malonaldehyde scan delta=+0.261
O     -1.53157307     0.58004105    -0.25622720
C     -0.92366645    -0.50733538    -0.31029896
C      0.40172499    -0.66283598     0.14894646
C      1.00912815     0.45584225     0.66942298
O      0.41380532     1.59422844     0.74152909
H     -0.58483566     1.38743351     0.31110157
H     -1.43964535    -1.37805182    -0.73170177
H      0.90666137    -1.60871949     0.09291111
H      2.02996962     0.42087646     1.04523618
9
malonaldehyde scan-jitter delta=+0.225
O     -1.51134259     0.54279860    -0.27102538
C     -0.94230902    -0.49186096    -0.28935678
C      0.37356453    -0.68881144     0.15591310
C      1.00093564     0.43112636     0.65423871
O      0.43028089     1.58205456     0.73631019
H     -0.60966658     1.40368990     0.29397306
H     -1.43332067    -1.37451538    -0.74491232
H      0.88005560    -1.61258236     0.08214710
H      2.05882326     0.39392058     1.06644811
9
malonaldehyde scan-jitter delta=+0.234
O     -1.49682156     0.59833351    -0.23530094
C     -0.93257870    -0.49502776    -0.29770127
C      0.35235086    -0.67358733     0.11176486
C      0.95237297     0.45434708     0.68181096
O      0.39315366     1.60907727     0.75803988
H     -0.58250454     1.37209550     0.33084289
H     -1.38714236    -1.43985886    -0.71012662
H      0.87174418    -1.58357892     0.12254201
H      2.01766851     0.40779759     1.04458460
9
malonaldehyde scan-jitter delta=+0.355
O     -1.52802337     0.57395049    -0.22208382
C     -0.97072630    -0.52242565    -0.29078071
C      0.39309601    -0.67029813     0.13988427
C      1.03766534     0.47666768     0.62964087
O      0.37965794     1.58178306     0.73738656
H     -0.55763891     1.38391867     0.35075068
H     -1.38368877    -1.40408673    -0.72655050
H      0.93764521    -1.60161414     0.10336495
H      2.01640642     0.40449228     1.05157199
9
malonaldehyde scan-jitter delta=+0.262
O     -1.50148460     0.54875204    -0.26025416
C     -0.86936678    -0.51289733    -0.30497623
C      0.42604918    -0.64530187     0.14460078
C      1.00294840     0.50197600     0.64147249
O      0.37358207     1.62802958     0.77983294
H     -0.61330807     1.41438616     0.32265913
H     -1.44223900    -1.37391262    -0.67531332
H      0.93007339    -1.58988872     0.10977766
H      2.01336153     0.41264929     1.04221256
9
malonaldehyde scan delta=+0.305
O     -1.53325597     0.57830253    -0.25731469
C     -0.92570911    -0.50593627    -0.31070467
C      0.40273254    -0.66202265     0.14953826
C      1.01007116     0.45331932     0.66912127
O      0.41551309     1.59661103     0.74279376
H     -0.56843086     1.40070072     0.32074371
H     -1.43932178    -1.37858921    -0.73171977
H      0.90633303    -1.60857814     0.09282413
H      2.02992168     0.42155882     1.04539588
9
malonaldehyde scan-jitter delta=+0.321
O     -1.55832219     0.59550622    -0.22145616
C     -0.92721394    -0.52915244    -0.33304064
C      0.45196987    -0.67825371     0.11424509
C      0.96680429     0.44048266     0.70693361
O      0.45438888     1.61571594     0.72198733
H     -0.54226770     1.39631840     0.34053291
H     -1.37242189    -1.38377022    -0.77096125
H      0.96528877    -1.61162622     0.08921176
H      1.98260905     0.44592497     1.07902913
9
malonaldehyde scan-jitter delta=+0.267
O     -1.52351969     0.61327315    -0.26700249
C     -0.88295233    -0.48035643    -0.25538385
C      0.35498520    -0.69713852     0.17866368
C      1.02386010     0.42833237     0.67456218
O      0.44606478     1.63354737     0.75359460
H     -0.56271340     1.41775487     0.32228403
H     -1.37900589    -1.38844000    -0.72826502
H      0.90356858    -1.55907047     0.07976138
H      2.05935968     0.42274174     1.03463706
9
malonaldehyde scan-jitter delta=+0.242
O     -1.59308211     0.57924926    -0.20422662
C     -0.94388992    -0.59107641    -0.29931347
C      0.36918984    -0.71313186     0.13592670
C      0.97182957     0.48657645     0.67709510
O      0.43559570     1.57902671     0.74097229
H     -0.58408573     1.40952011     0.25422242
H     -1.44010265    -1.34748945    -0.68054703
H      0.93134271    -1.60421128     0.04168742
H      2.03445647     0.36260043     1.01837823
9
malonaldehyde scan-jitter delta=+0.201
O     -1.53967714     0.56990672    -0.23095104
C     -0.93437242    -0.54402824    -0.32556072
C      0.37966435    -0.62981290     0.10507035
C      0.99500375     0.48041697     0.64299466
O      0.42660767     1.59710616     0.73216304
H     -0.62155927     1.40122135     0.30476575
H     -1.43123342    -1.42267944    -0.71635648
H      0.92576721    -1.56682582     0.07798395
H      2.00870579     0.44837670     1.01368096
9
malonaldehyde scan delta=+0.343
O     -1.53750878     0.57604371    -0.25950676
C     -0.92821966    -0.50486311    -0.31137172
C      0.40252982    -0.66081553     0.14977631
C      1.01173019     0.45219886     0.66945492
O      0.42035448     1.59880920     0.74519196
H     -0.55416647     1.41292497     0.32930705
H     -1.43847102    -1.38039148    -0.73186852
H      0.90553956    -1.60820400     0.09262242
H      2.03081334     0.42223205     1.04590749
9
malonaldehyde scan-jitter delta=+0.322
O     -1.56355843     0.56649972    -0.29382624
C     -0.88527185    -0.47626525    -0.37678452
C      0.33801430    -0.68045232     0.16464686
C      1.03211055     0.49443464     0.67793835
O      0.38821254     1.61134566     0.71038798
H     -0.57932200     1.36465119     0.30218383
H     -1.45725300    -1.39768059    -0.67877825
H      0.90842595    -1.59777321     0.09730507
H      2.07832299     0.39368717     1.06841219
9
malonaldehyde scan-jitter delta=+0.200
O     -1.56315820     0.57188264    -0.24465507
C     -0.96872741    -0.51645985    -0.31120111
C      0.41766499    -0.66753740     0.23437638
C      1.06818937     0.38613116     0.67299196
O      0.43697267     1.60907082     0.78690915
H     -0.63998791     1.38068777     0.37557828
H     -1.40202272    -1.31182717    -0.68222286
H      0.86702759    -1.57715717     0.08413927
H      2.03707588     0.42391332     1.03190665
9
malonaldehyde scan-jitter delta=+0.255
O     -1.55261228     0.59929326    -0.27583618
C     -0.92174949    -0.49030844    -0.32737006
C      0.39396863    -0.62628427     0.09877942
C      0.99155037     0.41204317     0.67596599
O      0.50147013     1.56194510     0.78199373
H     -0.51155510     1.34878798     0.28904268
H     -1.43910566    -1.41001799    -0.72352414
H      0.94652622    -1.58706865     0.08671906
H      2.04783384     0.43278660     1.00788814
9
malonaldehyde scan-jitter delta=+0.370
O     -1.55557055     0.59007858    -0.26156120
C     -0.91854550    -0.47816063    -0.38394509
C      0.44698101    -0.71804641     0.15012587
C      1.01632311     0.44780953     0.67508667
O      0.40346619     1.57687280     0.74202513
H     -0.54902667     1.39221912     0.33880226
H     -1.46454840    -1.39818592    -0.73929747
H      0.91870324    -1.61779314     0.10408681
H      2.07887205     0.40761362     1.08462367
9
malonaldehyde scan delta=+0.384
O     -1.54044004     0.57366027    -0.26123298
C     -0.93018613    -0.50399120    -0.31188605
C      0.40327063    -0.65972391     0.15034004
C      1.01297717     0.44976279     0.66929044
O      0.42387673     1.60159680     0.74724632
H     -0.53986925     1.42659216     0.33825871
H     -1.43787423    -1.38146519    -0.73192322
H      0.90492318    -1.60771543     0.09251729
H      2.03130759     0.42230949     1.04611402
9
malonaldehyde scan-jitter delta=+0.342
O     -1.58046139     0.59271081    -0.26739519
C     -0.86729430    -0.51964566    -0.33726888
C      0.43445572    -0.64780953     0.15218297
C      0.94006461     0.46113407     0.66555007
O      0.42588146     1.57762953     0.78578192
H     -0.54095854     1.41852433     0.29076370
H     -1.44460341    -1.41510467    -0.69176843
H      0.91147530    -1.62679060     0.08610868
H      2.07387819     0.42554781     1.04475320
9
malonaldehyde scan-jitter delta=+0.325
O     -1.48570608     0.58380526    -0.23506772
C     -0.94171860    -0.51640198    -0.28755993
C      0.40085189    -0.64994873     0.14740043
C      1.01198493     0.44476612     0.62884254
O      0.46200125     1.58261900     0.71035009
H     -0.53845417     1.40590144     0.37508957
H     -1.41966025    -1.40007397    -0.75947149
H      0.92322378    -1.62959595     0.05041614
H      1.98046891     0.44250261     0.99827680
9
malonaldehyde scan-jitter delta=+0.312
O     -1.57685192     0.59331186    -0.23815291
C     -0.96634343    -0.52339258    -0.28373324
C      0.40849318    -0.67470408     0.15276428
C      1.02440169     0.41563540     0.63769594
O      0.45618520     1.65313862     0.77334124
H     -0.54657079     1.40515964     0.33898894
H     -1.40734616    -1.34467781    -0.73318818
H      0.91598832    -1.65196545     0.08749605
H      2.07418655     0.41716028     1.05888203
9
malonaldehyde scan-jitter delta=+0.349
O     -1.51446138     0.59726589    -0.25922489
C     -0.94794592    -0.56978062    -0.34758865
C      0.39307003    -0.63919907     0.15553427
C      1.04632575     0.41230629     0.61507634
O      0.44094177     1.65400154     0.75222334
H     -0.55720206     1.45220053     0.37950421
H     -1.47515167    -1.39264068    -0.70263068
H      0.91141408    -1.63245030     0.08272884
H      2.00398874     0.37773667     1.05462643
9
malonaldehyde scan delta=+0.418
O     -1.54558694     0.57072274    -0.26393900
C     -0.93263110    -0.50360822    -0.31270818
C      0.40258169    -0.65809069     0.15050577
C      1.01511003     0.44913671     0.66993156
O      0.43040283     1.60406936     0.75035125
H     -0.52821094     1.44021782     0.34620449
H     -1.43653663    -1.38419871    -0.73213102
H      0.90376270    -1.60685090     0.09230495
H      2.03309503     0.42156080     1.04659295
9
malonaldehyde scan-jitter delta=+0.375
O     -1.58521021     0.56623086    -0.29286179
C     -0.92069146    -0.51536023    -0.32158003
C      0.35527656    -0.65239301     0.13605175
C      0.98982818     0.46015364     0.69546927
O      0.47912018     1.60822569     0.75569146
H     -0.55780633     1.41854026     0.37945111
H     -1.45134140    -1.33144834    -0.77026860
H      0.89808619    -1.61344174     0.07144714
H      2.02323096     0.41515009     1.05102909
9
malonaldehyde scan-jitter delta=+0.360
O     -1.54878902     0.60115051    -0.18997737
C     -0.91084596    -0.49212455    -0.34268882
C      0.38593978    -0.70918352     0.16474066
C      0.97058425     0.46936469     0.64714365
O      0.44103572     1.61957625     0.69378419
H     -0.55206763     1.45093448     0.36054217
H     -1.41257820    -1.39446553    -0.73491354
H      0.95730163    -1.60087285     0.11697419
H      2.02519872     0.37642207     1.06058614
9
malonaldehyde scan-jitter delta=+0.405
O     -1.52922200     0.59901380    -0.29091721
C     -0.95383030    -0.56843025    -0.29588469
C      0.42698128    -0.67824852     0.13728211
C      1.00865816     0.49684625     0.69714115
O      0.46460406     1.59965374     0.73701129
H     -0.49518026     1.39047856     0.36158199
H     -1.47552365    -1.36064829    -0.71690033
H      0.87709179    -1.60030501     0.05827380
H      2.00160102     0.40968721     1.02368192
9
malonaldehyde scan-jitter delta=+0.310
O     -1.51602018     0.63323562    -0.26391870
C     -0.93287417    -0.48136944    -0.32244723
C      0.41591519    -0.71474001     0.12942172
C      0.96855090     0.39147073     0.69809923
O      0.42097456     1.65074530     0.79511377
H     -0.53051441     1.42730868     0.32313114
H     -1.51018201    -1.40065980    -0.74080111
H      0.88310853    -1.63646063     0.08921325
H      2.02149554     0.42512439     1.01645447
9
malonaldehyde scan delta=+0.453
O     -1.55014685     0.56783908    -0.26640966
C     -0.93490513    -0.50322692    -0.31346630
C      0.40226160    -0.65630774     0.15084958
C      1.01702954     0.44796504     0.67035008
O      0.43621528     1.60686224     0.75327054
H     -0.51642945     1.45445575     0.35435625
H     -1.43498102    -1.38692345    -0.73225432
H      0.90241361    -1.60567780     0.09210188
H      2.03483977     0.42020086     1.04689652
9
malonaldehyde scan-jitter delta=+0.441
O     -1.49429476     0.58350715    -0.27182176
C     -0.95897026    -0.53285572    -0.29043148
C      0.38936097    -0.65544662     0.16260767
C      1.00011681     0.45499576     0.61397590
O      0.40669263     1.54830438     0.74032041
H     -0.52986907     1.50632467     0.33007616
H     -1.43149058    -1.37534106    -0.69139872
H      0.91506261    -1.58438492     0.14472755
H      1.98367523     0.40179789     1.03448424
9
malonaldehyde scan-jitter delta=+0.416
O     -1.55327524     0.54771934    -0.23560108
C     -0.95463968    -0.52394131    -0.30088134
C      0.37884817    -0.68898934     0.11048548
C      1.01164337     0.47698399     0.69268722
O      0.44816775     1.60887208     0.73508437
H     -0.52080803     1.41627171     0.35751314
H     -1.40659474    -1.43706480    -0.69430628
H      0.83619634    -1.63047208     0.05825418
H      2.01172490     0.40791229     1.08276978
9
malonaldehyde scan-jitter delta=+0.555
O     -1.58195175     0.53846905    -0.29036413
C     -0.95318872    -0.52421173    -0.35518837
C      0.40800519    -0.66216957     0.17869312
C      1.05212790     0.39936933     0.71560989
O      0.44967170     1.64296895     0.74865862
H     -0.49887980     1.46949086     0.39280961
H     -1.45505832    -1.40673294    -0.74154677
H      0.94128562    -1.56155781     0.05711260
H      2.04942100     0.41789661     1.03855154
9
malonaldehyde scan-jitter delta=+0.291
O     -1.53528444     0.62239253    -0.24981815
C     -0.94961275    -0.52300473    -0.29918330
C      0.40933080    -0.62300752     0.19219272
C      1.02408159     0.46579396     0.72015901
O      0.47485410     1.57955470     0.71014780
H     -0.55759230     1.40156578     0.36576746
H     -1.47280830    -1.36672851    -0.75715391
H      0.93075482    -1.58705384     0.09647116
H      2.04799279     0.38104559     0.97229012
9
malonaldehyde scan delta=+0.486
O     -1.55556297     0.56508585    -0.26916917
C     -0.93805925    -0.50305253    -0.31461017
C      0.40082201    -0.65256418     0.15128206
C      1.01966491     0.44745883     0.67121191
O      0.44263709     1.61005215     0.75652304
H     -0.50605406     1.46948158     0.36218308
H     -1.43155855    -1.39237245    -0.73238345
H      0.89969957    -1.60325837     0.09170884
H      2.03861562     0.41628280     1.04729950
9
malonaldehyde scan-jitter delta=+0.530
O     -1.57294735     0.57737027    -0.30948880
C     -0.91967807    -0.48635006    -0.31231594
C      0.40732787    -0.65669251     0.15419924
C      0.98012789     0.47765948     0.68005132
O      0.45730227     1.58600958     0.71031067
H     -0.47061860     1.42363975     0.35060594
H     -1.43651021    -1.38649276    -0.72417570
H      0.89753257    -1.64784712     0.08182194
H      2.03430294     0.43081108     1.05285442
9
malonaldehyde scan-jitter delta=+0.540
O     -1.52308360     0.58873124    -0.30905202
C     -0.93761996    -0.49137096    -0.33139622
C      0.44459913    -0.67062912     0.11096126
C      0.96484259     0.43192330     0.65582426
O      0.42989576     1.54227707     0.75555717
H     -0.47278777     1.44896576     0.37920561
H     -1.45116581    -1.41801365    -0.69282726
H      0.92073201    -1.57726864     0.16130120
H      2.03834709     0.41553831     1.05141868
9
malonaldehyde scan-jitter delta=+0.448
O     -1.51250165     0.59342578    -0.29592159
C     -0.96274026    -0.49181462    -0.29941040
C      0.41490916    -0.63607709     0.14555824
C      1.03816614     0.46679726     0.64437644
O      0.40490653     1.61715945     0.74424873
H     -0.54924346     1.49271462     0.37483625
H     -1.38971731    -1.39397611    -0.73011548
H      0.85638762    -1.56093928     0.11020361
H      2.06541971     0.40873429     1.04545368
9
malonaldehyde scan-jitter delta=+0.459
O     -1.54581094     0.54222804    -0.29263775
C     -0.87829229    -0.49296395    -0.33555017
C      0.35784375    -0.68817319     0.16083503
C      0.99057660     0.41458795     0.66453169
O      0.45302815     1.64817773     0.73146491
H     -0.52742447     1.48010814     0.34715335
H     -1.40688999    -1.40688155    -0.77279473
H      0.87780938    -1.65041586     0.07523818
H      2.05249317     0.41727888     1.04321758
9
malonaldehyde scan delta=+0.519
O     -1.56006021     0.56173112    -0.27173892
C     -0.93937546    -0.50271616    -0.31501883
C      0.40108988    -0.65172724     0.15160112
C      1.02089970     0.44621548     0.67135357
O      0.44892726     1.61311750     0.75969344
H     -0.49461423     1.48372185     0.37020661
H     -1.43012708    -1.39367290    -0.73218249
H      0.89876358    -1.60237804     0.09158526
H      2.03879588     0.41496653     1.04702454
9
malonaldehyde scan-jitter delta=+0.624
O     -1.59901863     0.53832516    -0.28397824
C     -0.93257324    -0.42750160    -0.33624615
C      0.42869590    -0.68704282     0.11979719
C      0.96099004     0.42196390     0.70187720
O      0.44741650     1.64885590     0.74383303
H     -0.46351938     1.46614487     0.39589782
H     -1.38201953    -1.40145832    -0.77361755
H      0.95294995    -1.62941896     0.07367811
H      2.02853665     0.44146636     1.06676534
9
malonaldehyde scan-jitter delta=+0.538
O     -1.54133884     0.55259066    -0.27845776
C     -0.91562300    -0.45361459    -0.35331910
C      0.43788205    -0.62351331     0.17075904
C      0.99938963     0.44867364     0.68257826
O      0.42932359     1.64821040     0.74531989
H     -0.44866574     1.43863881     0.32886909
H     -1.48711627    -1.37240590    -0.75946818
H      0.87396602    -1.57516288     0.14354668
H      2.01600149     0.45574525     1.06304489
9
malonaldehyde scan-jitter delta=+0.569
O     -1.56068391     0.52555450    -0.31435517
C     -0.93777166    -0.49902100    -0.33608807
C      0.37100347    -0.69158636     0.16194707
C      1.04084997     0.46751078     0.68947944
O      0.43229564     1.66084490     0.72911622
H     -0.47782587     1.47135105     0.33636499
H     -1.44985173    -1.37758445    -0.69981981
H      0.90818266    -1.69070569     0.11338264
H      1.97472476     0.47256063     1.05328655
9
malonaldehyde scan-jitter delta=+0.503
O     -1.55588864     0.59164583    -0.28047289
C     -0.94733757    -0.51440686    -0.31138033
C      0.40336248    -0.64509780     0.05147721
C      1.01783312     0.39804432     0.75303940
O      0.47261898     1.64088474     0.77372672
H     -0.47467921     1.45651766     0.39366705
H     -1.40457641    -1.38845008    -0.70911597
H      0.93052549    -1.60207399     0.05784422
H      2.06338482     0.46080563     1.01108267
9
malonaldehyde scan delta=+0.551
O     -1.56506538     0.55860325    -0.27444109
C     -0.94238131    -0.50248435    -0.31609184
C      0.39990676    -0.64835043     0.15203476
C      1.02296966     0.44581024     0.67202851
O      0.45567582     1.61664719     0.76315766
H     -0.48466785     1.49935933     0.37803103
H     -1.42690666    -1.39857205    -0.73224455
H      0.89672789    -1.60032735     0.09135194
H      2.04194738     0.41060733     1.04707717
9
malonaldehyde scan-jitter delta=+0.537
O     -1.53007518     0.56641738    -0.25593351
C     -0.91693723    -0.53435845    -0.30728506
C      0.43064277    -0.60549651     0.17832102
C      0.99499875     0.45201525     0.66463911
O      0.45765359     1.65013912     0.72130092
H     -0.46888385     1.51285729     0.34890342
H     -1.39293429    -1.41612262    -0.73082604
H      0.81879938    -1.56655419     0.08293055
H      2.03251942     0.45466343     0.98890022
9
malonaldehyde scan-jitter delta=+0.445
O     -1.53880716     0.59048483    -0.33442132
C     -0.93437845    -0.51393065    -0.34774928
C      0.36099787    -0.62642348     0.18743932
C      0.98913510     0.41727874     0.69698119
O      0.52895818     1.56964157     0.71901714
H     -0.51760642     1.46688921     0.41350720
H     -1.45807286    -1.33016744    -0.71794996
H      0.92811103    -1.58088508     0.05982569
H      1.99927622     0.43985571     1.08478533
9
malonaldehyde scan-jitter delta=+0.643
O     -1.55150677     0.55904764    -0.27099996
C     -0.93513228    -0.54376411    -0.31378652
C      0.40040165    -0.70281745     0.06920158
C      1.01539321     0.38297499     0.59973962
O      0.40242472     1.62275855     0.76191311
H     -0.48209156     1.55200633     0.39431346
H     -1.37896831    -1.39252337    -0.69898920
H      0.94549010    -1.53859095     0.08469504
H      2.00475930     0.41250212     1.08923773
9
malonaldehyde scan-jitter delta=+0.552
O     -1.51602079     0.56264445    -0.26279737
C     -0.89287923    -0.49694217    -0.29506467
C      0.42876166    -0.65518926     0.12561812
C      1.09974446     0.42767746     0.63896392
O      0.44769695     1.62158640     0.77227903
H     -0.49477665     1.51493877     0.43140702
H     -1.43716713    -1.39722200    -0.68880388
H      0.86542517    -1.63748192     0.06971659
H      2.03846649     0.43855807     0.99605898
9
malonaldehyde scan delta=+0.583
O     -1.57027405     0.55520511    -0.27729040
C     -0.94334923    -0.50277239    -0.31653185
C      0.39984497    -0.64759049     0.15220944
C      1.02433400     0.44484167     0.67229061
O      0.46311471     1.61973813     0.76676788
H     -0.47429921     1.51396569     0.38574603
H     -1.42551791    -1.39991533    -0.73207087
H      0.89591358    -1.59936876     0.09129463
H      2.04209500     0.40907985     1.04673488
9
malonaldehyde scan-jitter delta=+0.684
O     -1.59125207     0.52043007    -0.32685995
C     -0.98354216    -0.47944861    -0.31339445
C      0.40473917    -0.62835186     0.16586110
C      1.03771228     0.50441515     0.69323898
O      0.37792598     1.63754043     0.79706087
H     -0.45875534     1.49516780     0.35348409
H     -1.42410517    -1.37866103    -0.70482622
H      0.83818205    -1.58886362     0.13139253
H      2.06620783     0.48892120     1.02487106
9
malonaldehyde scan-jitter delta=+0.602
O     -1.60826391     0.58289656    -0.23011064
C     -0.97500597    -0.50128995    -0.30905958
C      0.41300773    -0.60818827     0.22572966
C      1.00644198     0.43512631     0.62534440
O      0.48744475     1.58450119     0.77072025
H     -0.45982800     1.55555935     0.38412725
H     -1.44072305    -1.41988598    -0.70141018
H      0.88514425    -1.59762051     0.11502114
H      2.08254613     0.44511096     1.00282304
9
malonaldehyde scan-jitter delta=+0.579
O     -1.60427559     0.56635110    -0.25937313
C     -0.93479638    -0.46208166    -0.26854229
C      0.39748685    -0.64198323     0.18612046
C      1.05141396     0.41356064     0.63193410
O      0.40811892     1.61924430     0.74824485
H     -0.49562558     1.46595104     0.38381929
H     -1.47273596    -1.43657549    -0.74352392
H      0.90989577    -1.59878229     0.11210429
H      2.03956236     0.39551971     1.03614202
9
malonaldehyde scan-jitter delta=+0.595
O     -1.59854410     0.55553577    -0.24157702
C     -0.92128083    -0.48126503    -0.30561483
C      0.40623540    -0.64516141     0.11865577
C      0.98939889     0.41521445     0.70011258
O      0.44318313     1.63829292     0.73125474
H     -0.48338204     1.48352735     0.40601436
H     -1.36634074    -1.43825969    -0.72386090
H      0.87013508    -1.57836834     0.14168325
H      2.02563895     0.43910127     1.04282710
