9
malonaldehyde train delta=-0.564
O     -0.76935783     0.25817238     0.49515717
C     -0.36007805     1.55517685     0.45201873
C      0.01996738     2.18403890    -0.70465710
C      0.31168326     1.32492542    -1.84263747
O      0.16855623     0.09578498    -1.85155737
H     -0.52250134    -0.09967059    -0.43374750
H     -0.37748471     1.94771753     1.51656417
H      0.29039602     3.30887584    -0.53398947
H      1.00630996     1.90482897    -2.60737544
9
malonaldehyde train delta=-0.805
O      0.38453750     0.84515796     0.76609266
C      0.69957789     1.78877842    -0.12753954
C      0.19182406     1.81640565    -1.42787405
C     -0.76017886     0.84493654    -1.83609331
O     -1.09909811     0.00533316    -1.03748559
H     -0.43079324     0.44577801     0.51497746
H      1.41572102     2.60323543     0.32646051
H      0.63769826     2.63096918    -2.02930927
H     -1.30502251     0.89789820    -2.79325943
9
malonaldehyde train delta=-0.813
O     -0.60703487    -0.33240334    -1.32579287
C     -0.34574961     0.83108182    -1.82346113
C     -0.01708930     2.06204212    -1.23944039
C      0.18411658     1.97741560     0.14883410
O      0.14123561     0.87921396     0.74304536
H     -0.16335024    -0.32840671    -0.49438503
H     -0.35374119     0.78658448    -2.89609959
H      0.30781148     2.94073178    -1.79416051
H      0.38015877     3.01112073     0.82675757
9
malonaldehyde train delta=-0.865
O      1.07430643     0.26990160     0.12026256
C      0.61817385     1.50955954     0.16743695
C     -0.52004647     2.02105117    -0.37288265
C     -1.18106465     1.33172529    -1.42738569
O     -0.76828233     0.26209321    -1.85612250
H      0.47336691    -0.16562253    -0.54067459
H      0.97972739     2.10937101     0.88530930
H     -0.74925669     3.05913729    -0.21157536
H     -2.13242912     1.77179174    -1.78765155
9
malonaldehyde train delta=-1.097
O      0.18257709     1.70042975     0.78179503
C      0.36034202     0.47967645     0.35753985
C     -0.03299496    -0.09301355    -0.76168315
C     -0.55065582     0.72656838    -1.89063860
O     -0.57266754     1.93820595    -1.88551373
H      0.00738819     2.34610210     0.06633375
H      0.51441236    -0.20069143     1.20836926
H      0.06577131    -1.14265728    -1.01774551
H     -1.04515158     0.21025209    -2.73260923
9
malonaldehyde train delta=-0.534
O     -1.48976063     1.54478282    -1.07346385
C     -1.12985614     0.92059619     0.08259228
C      0.10518563     0.37353167     0.29070176
C      1.08324585     0.72599208    -0.70291573
O      0.86694445     1.37658652    -1.72182412
H     -0.64000810     1.59228751    -1.58736498
H     -1.86530076     0.91666766     0.86703872
H      0.33150073    -0.21287901     1.14203069
H      2.06905971     0.27134031    -0.42540012
9
malonaldehyde train delta=-0.659
O     -1.60490701     0.67131973    -0.34130474
C     -0.46727105     0.39235977     0.33295732
C      0.79212982     0.71774366    -0.03169824
C      0.94030905     1.45048964    -1.25284535
O     -0.03655412     1.79127288    -1.93955194
H     -1.39608732     1.26395317    -1.13072469
H     -0.69136996    -0.23128364     1.22622128
H      1.72220970     0.57919362     0.61767415
H      1.91069495     1.82887718    -1.61352812
9
malonaldehyde train delta=-0.994
O      0.70816420     0.58832199     0.53276847
C      0.80040896     1.74458964    -0.07413884
C      0.00280421     2.02795323    -1.14360116
C     -0.93649583     1.09513039    -1.62625704
O     -1.21670141    -0.06528321    -1.23854866
H      0.03132177    -0.00477049     0.24462899
H      1.57283029     2.37104043     0.27102245
H      0.10036220     2.99533943    -1.54989165
H     -1.46951523     1.48853753    -2.54000518
9
malonaldehyde train delta=-0.770
O     -0.82333440     0.60603038     0.68115171
C     -1.37934429     0.92634386    -0.44670817
C     -0.71781059     1.33224944    -1.57108341
C      0.71345411     1.31313092    -1.62389857
O      1.41784519     1.03376856    -0.69821942
H      0.16370286     0.62935060     0.49190506
H     -2.48501196     0.96268303    -0.45977593
H     -1.31122836     1.68348637    -2.43248293
H      1.13990345     1.38472653    -2.65912427
9
malonaldehyde train delta=-0.974
O     -0.96071644     0.13163618     0.44049530
C     -0.97371046     1.44495496     0.27748638
C     -0.11283029     2.06395048    -0.58510519
C      0.66269827     1.45585291    -1.68853731
O      0.75551533     0.27020386    -1.80809677
H     -0.46005394    -0.18134161    -0.34376326
H     -1.66048723     2.08656593     0.82129138
H     -0.03205906     3.17010629    -0.63462025
H      1.17992200     2.15836121    -2.39648791
9
malonaldehyde train delta=-1.031
O     -0.08998954     0.29252797     0.78856568
C     -0.81937765     1.30576012     0.38322638
C     -0.90144298     1.74135054    -0.91702797
C      0.00573474     1.36190099    -1.94588367
O      0.96549255     0.60306886    -1.76651219
H      0.42367631    -0.11603312     0.04468172
H     -1.41180865     1.83497844     1.16465727
H     -1.69341693     2.48739337    -1.17369650
H     -0.08739446     1.75664781    -2.95200045
9
malonaldehyde train delta=-0.784
O     -0.31835226     0.89278375     0.90283272
C      0.71696847     1.33831226     0.19784470
C      0.80109711     1.51736341    -1.12472304
C     -0.30486385     1.02019882    -1.95389529
O     -1.31701684     0.48628818    -1.58438540
H     -1.06155925     0.57474413     0.23062036
H      1.42775509     1.70427387     0.92823139
H      1.72762228     1.55171662    -1.68532750
H     -0.02911087     1.21318537    -3.03160189
9
malonaldehyde train delta=-0.776
O     -1.12559372     0.37204128     0.28773378
C     -0.45181143     1.50434204     0.48879895
C      0.43160709     1.99082218    -0.41172623
C      0.69012372     1.22084474    -1.63546141
O      0.00580545     0.26318562    -2.06137237
H     -1.02513565     0.10647646    -0.64939324
H     -0.94280505     2.07923036     1.34016337
H      0.77582078     2.93954398    -0.28528810
H      1.52944996     1.61465760    -2.19839682
9
malonaldehyde train delta=-0.706
O     -0.56702229     2.44389106    -0.97536579
C     -0.80711847     1.36260783    -1.68186693
C     -0.28005011     0.15040674    -1.44277607
C      0.27046969    -0.02576728    -0.06698663
O      0.69952907     0.91985367     0.61507175
H      0.05590650     2.19742427    -0.26713818
H     -1.36515625     1.51889912    -2.59838522
H     -0.61856678    -0.70810991    -2.06939810
H      0.20462253    -1.12071694     0.26387496
9
malonaldehyde train delta=-0.707
O      0.02778034     1.34176432     0.84662700
C      0.78211934     1.68410559    -0.14781322
C      0.55297695     1.42571183    -1.42850011
C     -0.48914098     0.49970264    -1.77351114
O     -1.35358640     0.10265222    -0.95023554
H     -0.70869301     0.90412198     0.38039245
H      1.70635539     2.21772783     0.05065222
H      1.26480235     1.84301239    -2.03791557
H     -0.65735497     0.26291168    -2.78247940
9
malonaldehyde train delta=-0.596
O     -1.35891617     0.57160759     0.12834683
C     -0.48752245     1.48841746     0.40686607
C      0.61972350     1.79849738    -0.30243714
C      0.83597742     1.08337011    -1.53683451
O     -0.05292633     0.38136818    -2.03046295
H     -1.17551484     0.34081181    -0.85673279
H     -0.60888359     1.94060603     1.32797160
H      1.32327299     2.36596791     0.18588737
H      1.87678082     1.19966806    -1.87058521
9
malonaldehyde train delta=-0.926
O     -1.45371966     0.97056206    -1.61302855
C     -0.17161656     1.24033363    -1.91354333
C      0.85811372     1.24285730    -1.06134232
C      0.75097531     0.95595408     0.32079536
O     -0.33206323     0.75428196     0.83010616
H     -1.50491322     1.02053060    -0.64130029
H     -0.17496689     1.52977115    -2.91610682
H      1.89598399     1.23339440    -1.55319013
H      1.70033452     0.95367013     0.80642407
9
malonaldehyde train delta=-0.555
O     -0.74664504     0.24806489     0.57736084
C     -0.42022236     1.56799828     0.39557333
C      0.12188844     2.13046028    -0.68716564
C      0.36382147     1.35826474    -1.86369562
O      0.11462211     0.10125135    -1.86003520
H     -0.44848056    -0.07013492    -0.37236765
H     -0.77649737     2.17435657     1.22035081
H      0.22137460     3.17952561    -0.54715196
H      0.78615241     1.96128088    -2.81517728
9
malonaldehyde train delta=-0.903
O      0.52239233     0.49671547     0.72710132
C     -0.49675651     1.25656761     0.52047020
C     -1.09490896     1.50809679    -0.68666575
C     -0.50695291     1.23206908    -1.94411198
O      0.64731015     0.76096561    -2.05539482
H      0.99119541     0.36389419    -0.18797799
H     -1.06801201     1.47338287     1.43249956
H     -1.99166787     2.15014157    -0.80407604
H     -1.01283114     1.58986615    -2.84661959
9
malonaldehyde train delta=-1.146
O     -1.26718268     0.72811893     0.44066769
C     -0.07250181     1.21819495     0.54081181
C      0.87212411     1.38461958    -0.41461172
C      0.56349152     1.21432394    -1.79398592
O     -0.46572494     0.68970939    -2.16813276
H     -1.57141961     0.31030888    -0.39235119
H      0.19904630     1.43518952     1.59449970
H      1.80492449     1.73783799    -0.13354908
H      1.39721521     1.56931966    -2.48048886
9
malonaldehyde train delta=-0.814
O     -1.37010838     0.24411744    -0.16355918
C     -1.13709930     1.55291962    -0.08278990
C     -0.05641831     2.18948188    -0.58564887
C      0.99936461     1.32474390    -1.23403370
O      0.93203605     0.13268410    -1.37609358
H     -0.59729422    -0.30511335    -0.49491061
H     -1.81276420     1.96900078     0.70273232
H      0.33612943     3.06716890    -0.28740554
H      1.88690519     1.92508213    -1.38988250
9
malonaldehyde train delta=-0.840
O     -1.37626889     1.51317661    -1.53887591
C     -0.10552303     1.41624695    -1.88299168
C      0.85270484     0.87245292    -1.06908545
C      0.67815969     0.58357231     0.25603347
O     -0.41029369     0.68780126     0.79668736
H     -1.34244217     1.21036265    -0.63946420
H     -0.03944548     1.60972511    -2.99283480
H      1.79926747     0.82118318    -1.55217067
H      1.65215636     0.26072963     0.66422452
9
malonaldehyde train delta=-1.184
O      0.53275324     0.90786311     0.86750408
C     -0.69280133     0.92953805     0.47963950
C     -1.20744739     1.07077443    -0.79047587
C     -0.40449781     1.08158417    -1.94367447
O      0.81931814     1.12774806    -2.03716247
H      1.11534697     0.83224961     0.08484188
H     -1.36167900     0.94344448     1.32783571
H     -2.23398767     0.90644353    -0.88409062
H     -0.83420093     0.86142220    -2.96754377
9
malonaldehyde train delta=-1.029
O     -0.98849027    -0.25664484    -0.20049875
C      0.30005950    -0.11275888    -0.16430306
C      0.96677943     0.93786941    -0.72275140
C      0.27737546     2.12466821    -1.15244435
O     -0.91581602     2.43971348    -1.15431639
H     -1.40011838     0.61063986    -0.44639980
H      0.76060210    -1.06566744     0.04417177
H      2.01010844     0.94434350    -0.65517940
H      1.03067466     2.79868412    -1.52881605
9
malonaldehyde train delta=-0.787
O     -1.05009985     0.65371193     0.53082553
C     -1.29139957     1.43827108    -0.55259888
C     -0.49487841     1.61812796    -1.55735725
C      0.87624548     1.21740977    -1.40766741
O      1.25580319     0.39248854    -0.64605544
H     -0.13779044     0.33581280     0.42612675
H     -2.39542823     1.59976171    -0.59802265
H     -0.88706790     2.01095267    -2.55020658
H      1.57381254     1.55146463    -2.16081441
9
malonaldehyde train delta=-0.702
O     -0.04418664     1.74022668     0.73382703
C      0.86157383     1.00917787     0.07773856
C      0.73506987     0.39476343    -1.14937098
C     -0.46910032     0.68265598    -1.83648530
O     -1.50330121     1.00330557    -1.25946567
H     -1.01397294     1.65984281     0.30456977
H      1.85412162     1.20792367     0.51335128
H      1.47163967    -0.02974478    -1.71205260
H     -0.49206287     0.61973211    -2.91890108
9
malonaldehyde train delta=-0.763
O     -0.02468084     1.62990332     0.74454914
C      0.98848075     1.15106732     0.05395753
C      0.76931593     0.57059882    -1.15474169
C     -0.54700545     0.60670719    -1.80442410
O     -1.59813233     0.96764256    -1.27859201
H     -0.85891314     1.43684809     0.24261708
H      1.92666933     1.09670032     0.66609299
H      1.59661421     0.10214128    -1.73381794
H     -0.64142382     0.19097230    -2.81274688
9
malonaldehyde train delta=-0.683
O     -1.23339013     2.09662215    -0.51978463
C     -0.97243574     1.08275645     0.29535685
C      0.02864817     0.23654309     0.08666352
C      0.89288073     0.26897281    -1.12004179
O      0.68364407     1.16218392    -1.94482451
H     -0.58541689     2.00248763    -1.25844840
H     -1.50756237     1.24427862     1.15402278
H      0.27577777    -0.38942322     0.85925563
H      1.70409196    -0.47538064    -1.32921729
9
malonaldehyde train delta=-0.783
O     -0.54007351     0.35080478     0.67324196
C     -1.33928123     0.81217670    -0.25835990
C     -0.88479565     1.37331830    -1.40573971
C      0.53246734     1.57362006    -1.68963667
O      1.39629114     1.11676924    -0.94900227
H      0.34734048     0.68684652     0.40837368
H     -2.40417201     0.66349799    -0.03195687
H     -1.58806394     1.87211040    -2.06489487
H      0.66637070     1.92342252    -2.70428591
9
malonaldehyde train delta=-0.843
O     -1.03935293     0.82711537     0.65372653
C     -1.32851226     1.43405057    -0.50579805
C     -0.48776253     1.58246506    -1.63566288
C      0.78602056     0.91147847    -1.60546089
O      1.34971283     0.52548446    -0.58958009
H     -0.00615703     0.75175227     0.69253928
H     -2.35517352     1.63847292    -0.59204043
H     -1.02029435     1.67077408    -2.54574894
H      1.29049269     0.68795680    -2.55157931
9
malonaldehyde train delta=-0.700
O     -0.32499369     2.45778209    -0.05645162
C     -1.04715689     1.32980406     0.11294618
C     -0.80252179     0.11239914    -0.42686334
C      0.20282591     0.07097008    -1.41097300
O      1.13472537     0.87509053    -1.57301709
H      0.38305909     2.16645084    -0.72679108
H     -1.85203617     1.51712626     0.79781101
H     -1.33966633    -0.69641798    -0.21860661
H      0.13461848    -0.86052799    -2.07313068
9
malonaldehyde train delta=-0.994
O     -1.37036403     2.07217187    -0.93048480
C     -1.42990088     0.73730322    -0.88384536
C     -0.30240230    -0.04513090    -0.68931905
C      1.04681695     0.45919503    -0.42463629
O      1.38149464     1.60832934    -0.42990656
H     -0.41042621     2.29238424    -0.91676491
H     -2.32080949     0.20081650    -0.87902545
H     -0.36985935    -1.15575270    -0.75385101
H      1.78095249    -0.38431486    -0.40104841
9
malonaldehyde train delta=-0.665
O     -1.32707711     0.24934326    -0.06089992
C     -1.20431695     1.52768344    -0.20461892
C     -0.05164607     2.13015471    -0.69774595
C      0.98239066     1.36499364    -1.24490820
O      0.98386506     0.12690498    -1.20609827
H     -0.57922992    -0.25167552    -0.60523409
H     -2.01529437     2.23126588    -0.02608282
H      0.07790646     3.27305176    -0.49831691
H      1.76067364     1.95090007    -1.75920085
9
malonaldehyde train delta=-0.964
O     -0.04122403     1.58016292     0.86479026
C      0.69492849     1.90426435    -0.21233277
C      0.51700615     1.32783271    -1.48366149
C     -0.41052681     0.29051079    -1.71293368
O     -1.21472290    -0.09812569    -0.89036690
H     -0.75794634     0.97842895     0.64056243
H      1.45971648     2.74903966    -0.03013687
H      0.90366566     1.67304458    -2.37987331
H     -0.55488939    -0.04133517    -2.77460638
9
malonaldehyde train delta=-0.790
O     -1.36450737     0.77672680     0.04546238
C     -0.29712084     1.22632163     0.64847390
C      0.86632082     1.28512515    -0.18480293
C      0.69388630     1.17457641    -1.59280214
O     -0.28671551     0.74624042    -2.19632644
H     -1.24697617     0.22332278    -0.77891571
H     -0.25488872     1.47277100     1.72065648
H      1.77153828     1.68334520     0.27605737
H      1.49054549     1.57392599    -2.30285648
9
malonaldehyde train delta=-0.716
O     -0.04056037     0.18687718     0.67750730
C     -1.12550812     0.40875985    -0.03782022
C     -1.08834944     1.23454962    -1.20241443
C      0.13133918     1.73070241    -1.76531223
O      1.21328523     1.62277759    -1.24179333
H      0.69793483     0.49143604     0.00457343
H     -2.04650150     0.02405469     0.43092736
H     -2.00353051     1.41775191    -1.67320432
H      0.00740475     2.33359741    -2.68273693
9
malonaldehyde train delta=-0.648
O     -0.15693228     1.86224830     0.63409283
C     -1.18625332     1.44438363    -0.12936640
C     -1.08897126     0.79244482    -1.27236771
C      0.26223262     0.33114075    -1.67128914
O      1.27636263     0.62365596    -1.15327386
H      0.65614863     1.58027987     0.07396701
H     -2.14478584     1.53557079     0.37952247
H     -1.91727469     0.34554180    -1.87515538
H      0.17944633    -0.45415684    -2.36984466
9
malonaldehyde train delta=-0.565
O     -1.65558315     0.99707462    -0.30844069
C     -0.64314992     0.53573072     0.38010202
C      0.71936740     0.63977017     0.00558196
C      1.01945259     1.24278168    -1.26263146
O      0.12435988     1.59847206    -2.02803313
H     -1.12311829     1.33291948    -1.10044819
H     -0.74735288     0.08762661     1.32861669
H      1.59256626     0.39067408     0.59352359
H      2.09293032     1.21210914    -1.71853133
9
malonaldehyde train delta=-0.679
O     -0.40837738     1.66857896     0.70616162
C     -1.25503317     1.47027693    -0.24272867
C     -0.91346664     0.85968497    -1.48640699
C      0.37486425     0.47270676    -1.72211261
O      1.34518958     0.62219060    -0.91549631
H      0.55380360     1.44520404     0.37319388
H     -2.30067926     1.55043495     0.02741687
H     -1.80391646     0.55945223    -2.09088377
H      0.60136603    -0.24451252    -2.53452851
9
malonaldehyde train delta=-0.806
O     -0.50293778     2.44446657    -1.06422142
C     -0.62351891     1.38079321    -1.87300573
C     -0.40637725     0.19118997    -1.33256690
C      0.40636213     0.05329903    -0.11083234
O      0.47181852     0.82100329     0.81358085
H     -0.35485533     2.09342824    -0.14941655
H     -1.15543745     1.56662853    -2.80722019
H     -0.54809574    -0.79633188    -1.74931717
H      0.63834420    -1.04987222    -0.18646765
9
malonaldehyde train delta=-0.953
O     -1.31537884     2.05963646    -0.98871429
C     -1.36424890     0.73523941    -0.84811275
C     -0.31904298    -0.12249314    -0.57315502
C      1.04120546     0.45921688    -0.57545056
O      1.29953654     1.66160265    -0.37902708
H     -0.44427778     2.41770023    -0.72248941
H     -2.28445545     0.25977658    -0.92332549
H     -0.49575938    -1.15362407    -0.56059144
H      1.83019971    -0.27315579    -0.64524021
9
malonaldehyde train delta=-0.595
O     -1.31747400     0.19939391    -0.05839472
C     -0.85966766     1.41758995     0.28540743
C      0.16373574     2.06825158    -0.32308997
C      0.89964809     1.36742085    -1.33400898
O      0.56779238     0.32283580    -1.86178435
H     -0.73490481    -0.02335409    -0.90977599
H     -1.35104082     1.89478452     1.11989298
H      0.31086093     3.07631106    -0.29675496
H      1.78502835     1.92769417    -1.64264790
9
malonaldehyde train delta=-0.643
O     -1.34316899     1.89395512    -0.49266994
C     -0.71116439     1.22294760     0.43650879
C      0.27810998     0.36454079     0.12552120
C      0.78571980     0.32801654    -1.20986150
O      0.48144792     1.11935701    -2.04227262
H     -0.86928201     1.76332709    -1.36355783
H     -1.18504884     1.34452047     1.41639959
H      0.63138044    -0.23156869     0.83821887
H      1.45575976    -0.50323443    -1.41077564
9
malonaldehyde train delta=-0.914
O      0.58766064     1.17165106     0.77819518
C     -0.62585175     0.73036041     0.49727690
C     -1.15101757     0.66892499    -0.75147914
C     -0.45712954     1.00713972    -1.95210277
O      0.71099989     1.39008425    -1.97772096
H      0.95975326     1.52190249    -0.08333537
H     -1.14170539     0.40904979     1.39190237
H     -2.21950447     0.35272551    -0.87352173
H     -0.93007942     0.90948407    -2.87362325
9
malonaldehyde train delta=-0.804
O      0.44466277     1.45511213     0.68352360
C     -0.37669680     0.45500632     0.46781904
C     -0.85044745     0.15943684    -0.71974115
C     -0.45056718     0.93767980    -1.91898854
O      0.38280380     1.83205132    -1.88778073
H      0.62388277     1.90441368    -0.14367574
H     -0.55559350    -0.18485572     1.34752621
H     -1.48913475    -0.65359388    -0.96775400
H     -1.03965484     0.68950870    -2.84483933
9
malonaldehyde train delta=-1.156
O     -1.16350091     0.12596336     0.34248522
C     -0.85950851     1.43124731     0.26245287
C      0.03838397     2.15352223    -0.48953630
C      0.68674199     1.42784908    -1.57290181
O      0.70251978     0.25087464    -1.89404963
H     -0.41728243    -0.36089568    -0.13974089
H     -1.41684887     2.08846174     0.88715995
H      0.22702645     3.19567011    -0.45334983
H      1.24367031     2.14099681    -2.27017917
9
malonaldehyde train delta=-1.132
O     -1.62798675     1.65882792    -0.96930096
C     -1.23314781     0.70181956    -0.09210377
C      0.05570399     0.38135411     0.20160660
C      1.16606069     0.73606983    -0.66811530
O      1.09284147     1.42356653    -1.65351224
H     -0.83025432     2.13582606    -1.22224278
H     -2.10568490     0.23869802     0.36562070
H      0.20181428    -0.41848360     0.92587859
H      2.05680480     0.44746284    -0.10488946
9
malonaldehyde train delta=-0.962
O      1.00180073     0.17507461     0.06427405
C      0.63467426     1.42214813     0.28551988
C     -0.23710824     2.11995524    -0.45414364
C     -1.12063904     1.42474498    -1.45237455
O     -1.02044950     0.26185756    -1.80793337
H      0.48481777    -0.16675154    -0.67867640
H      1.35435293     1.97106427     1.08049350
H     -0.62713784     3.11724438    -0.17977738
H     -1.78413881     2.11610197    -1.89240976
9
malonaldehyde train delta=-1.034
O     -1.67806646     1.54651124    -0.94763949
C     -1.16479138     1.04291204     0.13907997
C      0.16513416     0.64212531     0.31168193
C      1.13350114     0.63136382    -0.74557845
O      1.02869979     1.16107348    -1.88291147
H     -1.01414146     1.36086801    -1.70703552
H     -1.85779146     0.78674819     0.94736709
H      0.34472984     0.35787358     1.34487529
H      1.95175388    -0.06062609    -0.45295299
9
malonaldehyde train delta=-0.539
O     -1.44298937     0.69556163     0.05989627
C     -0.43972887     1.39837540     0.47944913
C      0.64219449     1.73382370    -0.29684066
C      0.81989645     1.07907645    -1.56590001
O     -0.01182182     0.35680320    -1.99434367
H     -1.08538332     0.32063508    -0.83991154
H     -0.60709245     2.01869388     1.40472621
H      1.32154867     2.53388262     0.09050849
H      1.81799119     1.30284803    -1.93943251
9
malonaldehyde train delta=-0.877
O      0.86062131     0.08876676     0.16812900
C      0.81697973     1.37495174     0.08383562
C     -0.03560930     2.14423897    -0.64654926
C     -1.12145098     1.51592420    -1.47288426
O     -1.19783940     0.29001611    -1.57100319
H      0.18127720    -0.31198185    -0.44799697
H      1.57630461     1.95156783     0.79617689
H      0.00088923     3.20974779    -0.66172987
H     -1.80796553     2.30489811    -1.83686675
9
malonaldehyde train delta=-0.759
O      0.45911715     0.90430189     0.74556835
C      0.76903957     1.83579664    -0.18170496
C      0.09901023     1.88176099    -1.36508985
C     -0.78627821     0.82507234    -1.74589719
O     -1.16517620    -0.10432480    -1.07103770
H     -0.06776442     0.19449579     0.27334711
H      1.48686967     2.61549152     0.21082909
H      0.45967965     2.66001832    -1.98774948
H     -1.09860106     0.81021883    -2.80116955
9
malonaldehyde train delta=-0.875
O     -0.00009712     0.10822848     0.54274905
C     -1.15526245     0.42274589    -0.03803217
C     -1.10879305     1.30867568    -1.10289360
C      0.08502350     1.82376537    -1.67997599
O      1.25142682     1.54571386    -1.27922238
H      0.77444404     0.24469713    -0.04398361
H     -1.99702188     0.20793121     0.64529378
H     -2.09709253     1.52769302    -1.53908538
H     -0.13576224     2.62207462    -2.44991433
9
malonaldehyde train delta=-0.684
O     -0.75237911     2.40428614    -0.97353947
C     -1.08191123     1.29254918    -1.56150189
C     -0.58035087     0.11957042    -1.09964760
C      0.49025921     0.03457784    -0.10658979
O      1.17313534     1.00738552     0.25346906
H     -0.10491596     2.05169595    -0.24132185
H     -1.76893056     1.36021290    -2.36630549
H     -1.04428740    -0.83965881    -1.48096526
H      0.85118571    -0.90840471     0.08133573
9
malonaldehyde train delta=-0.863
O      0.14327615     1.70672924     0.71787340
C      0.41087901     0.48102999     0.40425109
C      0.13049031    -0.07416853    -0.82478483
C     -0.48641467     0.73469841    -1.87766841
O     -0.79684077     1.90366356    -1.78371845
H     -0.52411218     2.15697292     0.07332441
H      1.22956264    -0.04379484     1.00593788
H      0.30400667    -1.10445551    -1.17337722
H     -0.61506455     0.27678748    -2.88905085
9
malonaldehyde train delta=-0.420
O     -0.51385459     1.55400672     0.79551970
C     -0.08182388     2.19316243    -0.26522699
C      0.15834998     1.56695592    -1.46894217
C      0.02320287     0.18794769    -1.61773763
O     -0.13729241    -0.55953162    -0.66095414
H     -0.41050494     0.53854930     0.36495203
H     -0.11484095     3.28754932    -0.21652411
H      0.16564858     2.17664762    -2.41337815
H      0.07384189    -0.18735594    -2.62156997
9
malonaldehyde train delta=-0.936
O     -0.51397860     2.51204770    -0.23428822
C     -0.90691996     1.39498651     0.30187763
C     -0.34425198     0.16630321    -0.01858919
C      0.29181798    -0.04123403    -1.28672850
O      0.73703210     0.81857609    -2.04266426
H      0.23262032     2.22748955    -0.82449987
H     -1.56984747     1.56884006     1.15139289
H     -0.61971986    -0.61659803     0.64301861
H      0.35625075    -1.10663154    -1.53360106
9
malonaldehyde train delta=-0.776
O     -1.49714796     1.80149537    -1.08960746
C     -1.31752800     0.58873323    -0.53891959
C     -0.12713707    -0.02042710    -0.18182770
C      1.10164580     0.67834714    -0.41666678
O      1.23435444     1.77778158    -1.00788911
H     -0.53023868     2.16295164    -1.09241605
H     -2.29588039     0.07426691    -0.58004147
H     -0.22811928    -1.02877404     0.17176733
H      2.02789196     0.14917353    -0.01146358
9
malonaldehyde train delta=-0.863
O     -0.11234497     0.86531400     0.89702218
C      0.74009203     1.56415525     0.16609177
C      0.68001628     1.52740476    -1.21489257
C     -0.39561354     0.95921445    -1.94329830
O     -1.38614162     0.35222646    -1.46937657
H     -0.76799660     0.57732500     0.24206635
H      1.66947297     1.88727156     0.62326191
H      1.43463606     2.06079304    -1.77094827
H     -0.21182470     1.00116284    -3.05939286
9
malonaldehyde train delta=-0.783
O     -1.63096811     1.30444795    -0.97739278
C     -1.02804596     1.29245312     0.22244011
C      0.29347519     1.08790805     0.35517960
C      1.16291817     0.70109106    -0.77230234
O      0.71382145     0.71815463    -1.92197363
H     -1.02153700     1.03817701    -1.71566466
H     -1.81553677     1.48450220     0.92362267
H      0.73767398     1.06010549     1.32697836
H      2.26479626     0.55183738    -0.46907061
9
malonaldehyde train delta=-0.782
O      1.14623021     1.83390345    -0.43263166
C      0.15824952     1.67349970     0.38750239
C     -0.90320885     0.90629288     0.09107860
C     -1.09996174     0.35654793    -1.19279259
O     -0.21033398     0.30279177    -2.05049779
H      1.12106464     1.22912136    -1.25802756
H      0.36144021     2.19467919     1.27822862
H     -1.76588134     0.96735117     0.77114226
H     -2.06161510    -0.10618110    -1.54460886
9
malonaldehyde train delta=-0.966
O      0.01722219     1.45122370     0.90059932
C      0.93172302     1.31782254    -0.03938201
C      0.71098112     1.03375779    -1.35332334
C     -0.56852878     0.63917463    -1.85693838
O     -1.52675385     0.51840636    -1.12146572
H     -0.82551049     1.16230683     0.54963019
H      1.93680049     1.61027681     0.43787077
H      1.48141455     1.16646265    -2.14340125
H     -0.76775473     0.64703950    -2.99547476
9
malonaldehyde train delta=-0.600
O      0.60651879    -0.22852127    -1.09708557
C      0.16193204     0.68396977    -1.89051239
C     -0.55547662     1.79795821    -1.42894092
C     -0.73896217     1.91155954    -0.01627596
O     -0.27781411     1.15093206     0.84143579
H      0.58872046     0.14747066    -0.12607349
H      0.31090966     0.46563181    -2.95267768
H     -0.87353562     2.64594446    -1.91069856
H     -1.20633577     2.86852191     0.41568860
9
malonaldehyde train delta=-1.074
O     -0.61596180     2.56109817    -1.07939783
C     -0.79973973     1.39110989    -1.57793972
C     -0.52842912     0.07399591    -1.24566091
C      0.42614352    -0.07248289    -0.16148320
O      0.78169728     0.85240313     0.58571838
H     -0.04677419     2.57581869    -0.24415060
H     -1.34216552     1.39719205    -2.53419311
H     -0.80152423    -0.70395575    -1.90126094
H      0.96165898    -1.03354026    -0.34742708
9
malonaldehyde train delta=-0.782
O      0.72669684     0.35090946     0.46394134
C      0.85817605     1.59305996    -0.05882078
C      0.04234242     2.09522360    -1.00510371
C     -1.00699206     1.22920805    -1.62550687
O     -1.24717744     0.11912274    -1.30957171
H     -0.02116902    -0.08359195    -0.03469380
H      1.51544633     2.25230618     0.58475161
H      0.29148594     3.07707977    -1.51522879
H     -1.69716249     1.85726491    -2.23177687
9
malonaldehyde train delta=-0.492
O     -1.58990265     1.24759502    -0.34649876
C     -0.67553084     0.79685610     0.46296681
C      0.53657912     0.56413031     0.04221290
C      1.00623883     0.87898855    -1.29712762
O      0.26961225     1.48963114    -2.06784814
H     -1.18538315     1.39320511    -1.38079458
H     -0.89607329     0.59584125     1.50414324
H      1.20792992     0.06857019     0.66887134
H      2.08418424     0.84142184    -1.49598202
9
malonaldehyde train delta=-0.877
O     -0.32674311     2.41350984    -0.00682461
C     -1.13032012     1.33720183     0.08412507
C     -0.80774506     0.17240553    -0.51496763
C      0.29568697     0.01195701    -1.41218702
O      1.15116396     0.90390020    -1.52171746
H      0.45628559     2.07118329    -0.34630048
H     -1.97209548     1.58016978     0.68868233
H     -1.53398350    -0.68292966    -0.50522579
H      0.09414861    -0.69673460    -2.24678100
9
malonaldehyde train delta=-0.671
O     -1.48188231     0.39519348    -0.21177723
C     -0.21523286     0.05030901     0.16966702
C      0.87081174     0.76578282    -0.21018739
C      0.75805334     1.84508913    -1.19758348
O     -0.30043138     2.02260949    -1.81692429
H     -1.32645876     1.05821297    -0.93288674
H     -0.19926214    -0.86373392     0.90739067
H      1.87725665     0.50500959     0.02863420
H      1.66744064     2.25921793    -1.47288906
9
malonaldehyde train delta=-0.450
O     -1.27811671     0.28426892    -0.08599576
C     -0.78706365     1.41584854     0.29530728
C      0.18737284     2.09705787    -0.39347253
C      0.85007689     1.36852593    -1.41132382
O      0.49085042     0.20185780    -1.69865043
H     -0.65561100    -0.06939412    -0.81577238
H     -1.35343711     2.01183827     1.03423614
H      0.55905122     3.06885646    -0.04260714
H      1.70190707     1.89159389    -1.94283963
9
malonaldehyde train delta=-0.653
O     -1.28843016     2.12301752    -0.45949411
C     -0.93174096     1.13075966     0.39312790
C      0.12548508     0.26101378     0.07432771
C      0.90085154     0.32337846    -1.10789684
O      0.62718593     1.06761905    -2.07892734
H     -0.64089114     1.91827940    -1.28444771
H     -1.44843133     1.02398697     1.30086213
H      0.23966982    -0.52956986     0.68838676
H      1.76148700    -0.48022461    -1.26854066
9
malonaldehyde train delta=-0.654
O     -1.35483933     0.24670190    -0.17894315
C     -1.17023757     1.55168434    -0.08922982
C     -0.04513097     2.15298753    -0.60598710
C      1.00973053     1.35543198    -1.21177904
O      0.96289303     0.11273349    -1.28118617
H     -0.52978022    -0.27656511    -0.56034011
H     -2.01106010     2.12847861     0.44564112
H     -0.02110167     3.21416662    -0.90244008
H      1.78025143     1.95253480    -1.67151103
9
malonaldehyde train delta=-0.775
O     -0.06774786     0.23394418     0.67222855
C     -1.10135819     0.55818607    -0.07423110
C     -1.07405031     1.29705768    -1.21583004
C      0.13721473     1.70145561    -1.78640682
O      1.19439287     1.43330140    -1.18022162
H      0.66604895     0.33670705     0.05862128
H     -1.99607672     0.30149750     0.42207477
H     -2.02389119     1.48945050    -1.67326305
H      0.22238377     2.22191939    -2.77751436
9
malonaldehyde train delta=-0.507
O      1.14743608     1.67798718    -0.16608558
C      0.13496559     1.35433745     0.53300480
C     -1.06508260     0.86642019    -0.00329620
C     -1.02873022     0.49501108    -1.41144490
O     -0.08214210     0.63252697    -2.18041201
H      0.84651971     1.41690823    -1.16604420
H      0.01569140     1.75609373     1.57556584
H     -1.97459123     0.83972203     0.51606393
H     -1.94078675     0.13585596    -1.84613884
9
malonaldehyde train delta=-0.534
O     -0.42501577     1.55502494     0.76808269
C      0.03396039     2.17825197    -0.28899248
C      0.26386332     1.57610417    -1.45380899
C      0.03051914     0.17303018    -1.59852328
O     -0.45502374    -0.50204453    -0.71707415
H     -0.58774258     0.52476027     0.51342347
H      0.33911090     3.25958810    -0.00612027
H      0.62419890     2.17660167    -2.31410728
H      0.26767808    -0.22354435    -2.65281029
9
malonaldehyde train delta=-0.686
O     -1.17522621     1.99779032    -1.34133333
C      0.02241729     1.49218057    -1.80254506
C      0.85469155     0.59017827    -1.17979478
C      0.43362955     0.14667205     0.14604731
O     -0.49122898     0.73781673     0.70263953
H     -1.36853338     1.51396232    -0.49790315
H      0.22154402     1.89740503    -2.73678897
H      1.78124329     0.37540895    -1.75855505
H      0.91185446    -0.72705451     0.50302152
9
malonaldehyde train delta=-0.540
O     -0.33216624     2.42494779    -0.21310141
C     -1.02804346     1.32503805     0.16685505
C     -0.62218255     0.06973015    -0.15844347
C      0.35438702     0.02641720    -1.25381597
O      0.83797251     0.98465055    -1.82634526
H      0.41842974     2.09683607    -0.81832623
H     -1.70961613     1.60335926     0.91328833
H     -1.11336636    -0.71629367     0.21835518
H      0.35248291    -0.97039416    -1.75341144
9
malonaldehyde train delta=-0.579
O     -0.08344907     1.68893807     0.66486370
C      0.87005535     0.93735961     0.17343867
C      0.72096548     0.42821306    -1.09347165
C     -0.45614958     0.65152828    -1.81179295
O     -1.46965678     1.14750463    -1.32958320
H     -0.79375398     1.95561805    -0.07493605
H      1.68666514     0.79720501     0.79633713
H      1.43877177    -0.23563227    -1.62249427
H     -0.50418557     0.34743694    -2.88355158
9
malonaldehyde train delta=-0.950
O     -0.74448043     0.25057074     0.58331825
C     -0.54154661     1.54931527     0.38143624
C      0.15852464     2.07236196    -0.68688894
C      0.38319088     1.37439810    -1.81792662
O      0.16028886     0.17619975    -1.91124558
H     -0.35258861    -0.33145619    -0.11275148
H     -0.96461447     1.98846448     1.23404283
H      0.41941663     3.04531892    -0.65823827
H      0.67370940     2.01585655    -2.66168326
9
malonaldehyde train delta=-0.790
O     -0.54367755     1.56243984     0.79707071
C     -0.44833774     2.15709407    -0.38356770
C     -0.05958077     1.51955473    -1.49605737
C      0.24461893     0.13001477    -1.54348744
O      0.20654727    -0.52263551    -0.52531870
H     -0.23418690     0.64493846     0.71762443
H     -0.79787099     3.21789975    -0.27329088
H     -0.22282276     1.93142282    -2.49693172
H      0.29966353    -0.22197295    -2.59024195
9
malonaldehyde train delta=-0.957
O     -1.54933178     1.76328891    -1.05247079
C     -1.29509975     0.51623754    -0.53133152
C     -0.10144111     0.02511094    -0.17456534
C      1.11972933     0.77697940    -0.38695945
O      1.24148589     1.75340393    -1.11186751
H     -0.64476838     1.96912311    -1.23389304
H     -2.31185252     0.06831728    -0.24482496
H     -0.08564931    -0.97376452     0.18676881
H      1.92910498     0.45503089     0.30131329
9
malonaldehyde train delta=-0.828
O     -0.95575930     2.26871668    -0.29302768
C     -0.30754820     1.43657532     0.49202640
C      0.39899775     0.37352939     0.08155097
C      0.50191734     0.09754447    -1.38698566
O     -0.16250440     0.71094283    -2.12428759
H     -0.59562249     2.19457734    -1.19619253
H     -0.41884593     1.55653519     1.56881154
H      0.86460627    -0.14417985     0.80859491
H      1.36906086    -0.52800751    -1.76283496
9
malonaldehyde train delta=-0.768
O      0.04945236    -0.26328149    -1.56458572
C     -0.35147585     0.90264646    -1.88832552
C     -0.41512595     1.99349509    -1.12697740
C     -0.13319462     1.91173295     0.28794209
O      0.11201352     0.86350830     0.83190621
H      0.26236778    -0.40406869    -0.51037152
H     -0.46912763     1.05152659    -2.94709549
H     -0.87137175     2.84113297    -1.57480966
H     -0.18368537     2.83992433     0.81574730
9
malonaldehyde train delta=-0.951
O     -1.58605616     0.93455885    -0.02125286
C     -0.51188255     1.49996241     0.43705308
C      0.70815333     1.56921296    -0.19774575
C      0.92385148     0.91435816    -1.45778380
O      0.05842400     0.32340662    -2.06095475
H     -1.38035703     0.53255371    -0.84820373
H     -0.70088022     2.07722406     1.30172936
H      1.56787513     2.07892560     0.32977752
H      1.96235127     0.89554839    -1.66379238
9
malonaldehyde train delta=-0.757
O     -0.01933068     1.42101718     0.79333178
C      0.94635583     1.36148228    -0.05263277
C      0.77727039     0.84346341    -1.28547440
C     -0.55911907     0.73845750    -1.78289363
O     -1.57171968     0.62651476    -1.11846953
H     -0.80947419     1.15191539     0.32428006
H      1.93550760     1.59065668     0.42763593
H      1.64159957     0.72275939    -1.96166314
H     -0.71974685     0.53449525    -2.91570630
9
malonaldehyde train delta=-0.790
O     -0.75530823     2.40554901    -0.36892594
C     -0.53302579     1.42221086     0.48692738
C      0.11774452     0.28694887     0.11762572
C      0.42622937     0.02109752    -1.25724478
O      0.17120315     0.76044995    -2.18668857
H     -0.48716630     2.13063705    -1.27362994
H     -1.08751251     1.44295338     1.44439155
H      0.22801500    -0.48116412     0.93369352
H      1.02741171    -0.88299884    -1.41943306
9
malonaldehyde train delta=-0.552
O     -1.45389210     1.35806231    -0.04563610
C     -0.35560904     1.14661977     0.57724042
C      0.87132587     0.96345347    -0.12122955
C      0.80721617     0.85740995    -1.52585708
O     -0.25930040     0.77946096    -2.15315473
H     -1.32891649     1.02506023    -1.01311327
H     -0.19893282     1.13991516     1.67745229
H      1.81319315     0.87173488     0.37600824
H      1.75521786     0.70745093    -2.09753279
9
malonaldehyde train delta=-0.719
O     -1.39792389     0.30681573    -0.18424325
C     -0.97454517     1.44559693     0.17340432
C      0.09975491     2.11310665    -0.35429691
C      0.94137727     1.34786689    -1.31064154
O      0.77156578     0.16859244    -1.64749197
H     -0.83527634    -0.00470311    -0.98583853
H     -1.43513765     1.89299297     1.11737378
H      0.27248833     3.07385236    -0.13481956
H      1.69454933     2.03131770    -1.70194788
9
malonaldehyde train delta=-0.782
O     -0.23857782    -0.21933281    -1.45943810
C     -0.32898383     0.94512431    -1.98020705
C     -0.29425763     2.00556316    -1.14823710
C     -0.06164286     1.87638119     0.29758348
O      0.25053524     0.77544514     0.79636091
H     -0.23720448    -0.12200144    -0.55370265
H     -0.48035740     0.97964538    -3.08206692
H     -0.48613516     3.11600691    -1.43703232
H     -0.20396669     2.81696352     0.98459958
9
malonaldehyde train delta=-0.746
O     -0.87220236     0.21599437     0.42067182
C     -0.51518125     1.49766013     0.43478617
C      0.18564458     2.05277540    -0.53843695
C      0.36036681     1.39109546    -1.72867987
O      0.28240860     0.21682421    -1.96878521
H     -0.53081357    -0.00932352    -0.46651863
H     -0.88711098     2.04701015     1.25035375
H      0.17311043     3.21346528    -0.44469702
H      0.74156491     2.01604770    -2.51964663
9
malonaldehyde train delta=-0.659
O      0.24775687     0.41933168     0.70355301
C     -0.76977575     1.16382721     0.38777071
C     -0.99942814     1.68813792    -0.79253000
C     -0.14899914     1.37626162    -1.91663607
O      0.81252444     0.68635553    -1.83264366
H      0.66040682     0.20303922    -0.21857371
H     -1.58998123     1.16902464     1.06605928
H     -1.96091177     2.15746232    -1.02469569
H     -0.59145312     1.67974427    -2.88839920
9
malonaldehyde train delta=-0.843
O     -0.62958186     1.46208649     0.73798590
C     -1.27695856     1.52514010    -0.44125798
C     -0.83191321     0.99615453    -1.56397783
C      0.54707348     0.52745216    -1.62683980
O      1.36954246     0.61772766    -0.79454392
H      0.31820981     1.24928006     0.56304480
H     -2.29206024     1.77108451    -0.11999424
H     -1.46264746     0.71144718    -2.38063618
H      0.85433519    -0.02138318    -2.53674808
9
malonaldehyde train delta=-0.820
O     -1.60328580     1.29263061    -0.28082761
C     -0.55552927     1.36856002     0.45931525
C      0.73208335     1.24821403    -0.00196450
C      0.92504454     0.84236246    -1.34512164
O      0.08479865     0.36753010    -2.05408949
H     -1.29540325     1.00564294    -1.13817274
H     -0.76232875     1.81599042     1.40300908
H      1.56695926     1.74180132     0.63990182
H      2.01750154     0.87626980    -1.72703852
9
malonaldehyde train delta=-0.901
O     -0.03572477     1.66610249     0.73607986
C      0.75155804     0.75567952     0.26376205
C      0.55125580     0.20431245    -0.92154626
C     -0.50849693     0.61080134    -1.81846588
O     -1.25000751     1.57802817    -1.64595893
H     -0.69474435     1.83262875     0.08879151
H      1.67498398     0.51007976     0.81219707
H      1.23432270    -0.60286081    -1.20724469
H     -0.60760629     0.12282652    -2.84477174
9
malonaldehyde train delta=-0.677
O     -0.16747727     0.36655513     0.73974264
C     -1.11576599     0.99500721     0.09506034
C     -1.03955106     1.54745527    -1.14984363
C      0.25770100     1.47138605    -1.85136192
O      1.19050152     0.88898134    -1.38371683
H      0.63043424     0.60769386     0.17765273
H     -2.12088447     0.93636981     0.46079505
H     -1.91819489     1.90753976    -1.62281915
H      0.25349639     1.93316837    -2.86271879
9
malonaldehyde train delta=-0.464
O     -0.37996277     1.67971381     0.74726734
C      0.37903476     2.09603666    -0.26853825
C      0.55770764     1.36343078    -1.47189481
C     -0.12483191     0.13883784    -1.59651065
O     -0.88756083    -0.30903213    -0.74167622
H     -0.79656797     0.74063259     0.39538906
H      0.87176887     3.12926373    -0.21819601
H      1.01354371     1.79413405    -2.33616476
H     -0.01678765    -0.35612169    -2.52512888
9
malonaldehyde train delta=-0.746
O     -0.75781103     0.25318060     0.50199478
C     -0.48410485     1.56946431     0.47957792
C      0.09347849     2.09039481    -0.66495514
C      0.38243788     1.37161469    -1.78097040
O      0.17274467     0.14006646    -1.94948725
H     -0.56703598    -0.20365512    -0.38645829
H     -0.79291817     1.90684093     1.40949432
H      0.17925804     3.25758937    -0.71225099
H      1.06784282     1.86664651    -2.47281710
9
malonaldehyde train delta=-0.697
O     -0.87760821     0.71149489     0.66426759
C     -1.42157710     0.96901674    -0.50426332
C     -0.70998809     1.24194182    -1.63293467
C      0.76145356     1.29197138    -1.57147070
O      1.45417920     0.97079769    -0.63074409
H      0.15891597     0.70670885     0.50875956
H     -2.52211160     1.02471669    -0.46904672
H     -1.22725050     1.41465460    -2.55987600
H      1.22428764     1.65537211    -2.53971610
9
malonaldehyde train delta=-1.009
O     -1.41081780     1.83933035    -0.33287469
C     -0.59021205     1.24053984     0.50549886
C      0.54633953     0.56414852     0.11871237
C      0.87011676     0.56704309    -1.26982875
O      0.13235389     0.73362367    -2.22753785
H     -1.22715950     1.66368072    -1.21952727
H     -0.91510842     1.37639203     1.60129296
H      1.20756267     0.34606544     0.85349256
H      1.96005857     0.51117838    -1.37204588
9
malonaldehyde train delta=-0.655
O     -0.45058563     1.56686021     0.82643704
C     -0.11617267     2.20578065    -0.29544959
C      0.18154720     1.60864217    -1.51418508
C      0.00904036     0.18332099    -1.60830876
O     -0.22239065    -0.58948791    -0.67922598
H     -0.51502570     0.57174519     0.52391029
H     -0.02483035     3.21617284    -0.14745962
H      0.59038046     2.14585661    -2.37835598
H      0.32237855    -0.23131859    -2.58023657
9
malonaldehyde train delta=-0.422
O     -1.58859176     0.76041269    -0.64193952
C     -0.90516500     1.46646281     0.22556335
C      0.47600160     1.48509349     0.18575003
C      1.05004768     1.10216314    -1.04863352
O      0.48666462     0.40038803    -1.86845245
H     -0.80314075     0.32605121    -1.17489899
H     -1.53945128     1.99564998     0.94598517
H      1.05712455     2.26418128     0.68174531
H      2.10338852     1.54598355    -1.18924148
9
malonaldehyde train delta=-0.761
O     -0.76254867     0.12281491     0.39301526
C     -0.82885078     1.41868666     0.25906484
C     -0.39655332     2.13873650    -0.76074171
C      0.56458111     1.46167306    -1.59985806
O      0.72541974     0.25576816    -1.69410220
H     -0.22970281    -0.27130214    -0.33344881
H     -1.33880096     1.92746022     1.08872148
H     -0.52432203     3.15513694    -0.92045775
H      1.27276943     2.11851977    -2.17185996
9
malonaldehyde train delta=-0.842
O     -0.03535080     1.53605509     0.81030623
C      0.90082462     1.18836339    -0.01415075
C      0.77870066     0.77915174    -1.29459668
C     -0.54548857     0.45938910    -1.73423475
O     -1.53239435     0.96455678    -1.23124669
H     -0.79376227     1.59644718     0.26063626
H      1.85035831     1.15123389     0.47249895
H      1.71278399     0.52931316    -1.81877259
H     -0.71403406    -0.16247664    -2.62825490
9
malonaldehyde train delta=-0.625
O      0.05105925     1.72309953     0.64980703
C      0.51829485     0.55393708     0.37173484
C      0.29979081    -0.02740124    -0.88973424
C     -0.38354997     0.74073789    -1.88494528
O     -1.01820681     1.77119198    -1.61611500
H     -0.30649753     2.19396505    -0.18789885
H      0.97462418    -0.07430117     1.11612971
H      0.65764640    -0.95375880    -1.20001079
H     -0.48423192     0.42076456    -2.97348854
9
malonaldehyde train delta=-0.726
O     -1.07373661     0.60599338     0.46836792
C     -1.35132447     1.34344658    -0.59855723
C     -0.41839894     1.78713847    -1.45219841
C      0.89791011     1.20369795    -1.43782124
O      1.22913395     0.35090716    -0.64387167
H     -0.13607574     0.25112908     0.41351789
H     -2.34110407     1.73222431    -0.55209883
H     -0.71997534     2.55069067    -2.10311797
H      1.69343202     1.68007192    -2.01764042
9
malonaldehyde train delta=-0.768
O     -0.21443711     2.25873598     0.30087099
C     -1.16824196     1.38510665    -0.02370293
C     -0.98662926     0.27514512    -0.83623408
C      0.19526179     0.18793085    -1.58890730
O      1.28436076     0.80164301    -1.34248323
H      0.62560855     2.01571694    -0.21454012
H     -1.95967138     1.44711717     0.66344997
H     -1.90942207    -0.49434985    -0.93444621
H      0.15423391    -0.51162034    -2.40669578
9
malonaldehyde train delta=-0.989
O      1.39795287     0.72166834    -0.09171968
C      0.45775059     1.61577361     0.25881899
C     -0.79278591     1.82078461    -0.26888558
C     -1.22652221     1.11375123    -1.44371101
O     -0.69776082     0.06650989    -1.80165932
H      0.95295458     0.06463873    -0.69624959
H      0.69140587     2.13208313     1.23557621
H     -1.39234803     2.65911060     0.09466390
H     -2.23920431     1.56382520    -1.94187907
9
malonaldehyde train delta=-0.829
O      0.64904205     0.66721546     0.58831353
C      0.77236568     1.76239900    -0.12727284
C     -0.01230697     1.96271173    -1.25302212
C     -0.93387055     1.01390723    -1.70477514
O     -1.10710231    -0.04517070    -1.10616279
H      0.07604973     0.02898050     0.20556166
H      1.29489740     2.51994886     0.32973526
H      0.28409618     2.89285662    -1.83596140
H     -1.74345442     1.37057452    -2.39575391
9
malonaldehyde train delta=-0.620
O     -0.93165141     0.98328262     0.65512692
C     -1.36137690     1.40886678    -0.46992429
C     -0.56605836     1.36124331    -1.66455659
C      0.72569302     0.84507781    -1.61667448
O      1.36199659     0.57589749    -0.57858510
H      0.01078092     0.53841126     0.42974812
H     -2.40947717     1.87342195    -0.54009059
H     -0.89271549     2.03107089    -2.51352838
H      1.34080953     0.76367561    -2.53173745
9
malonaldehyde train delta=-0.543
O     -0.11279334    -0.24087824    -1.44843467
C     -0.29071688     0.94813909    -1.87335274
C     -0.37758295     2.07428420    -1.15840842
C     -0.16667909     1.83360628     0.27984344
O      0.20740163     0.79009061     0.72746747
H      0.35642310    -0.23142149    -0.49828756
H     -0.62807503     1.01125871    -2.93653478
H     -0.51187561     3.00321356    -1.55603618
H     -0.16890292     2.77688477     0.87246404
9
malonaldehyde train delta=-1.099
O      0.51207808     0.79479056     0.86743895
C     -0.71970921     1.02006635     0.46707260
C     -1.24615214     1.09237646    -0.80753991
C     -0.37158109     1.14720437    -1.96259673
O      0.86475103     1.03673111    -1.99672832
H      1.08370778     0.89023811     0.07073744
H     -1.42228331     1.13578797     1.32028195
H     -2.28585787     1.34224746    -0.92477191
H     -0.69991825     1.32976780    -3.00451229
9
malonaldehyde train delta=-0.630
O     -0.48983652     2.50173617    -0.24826688
C     -0.90063154     1.33242408     0.33076913
C     -0.47504251     0.14294872    -0.14617400
C      0.22300818    -0.01657469    -1.38692215
O      0.90447679     0.89254865    -1.81587381
H      0.07875212     2.13897889    -1.05173353
H     -1.64531353     1.51095372     1.07392882
H     -0.97500400    -0.77991281     0.24042203
H      0.22404380    -1.04801523    -1.82362872
9
malonaldehyde train delta=-0.706
O     -0.91945445     0.27057076     0.47265089
C     -0.36377303     1.53325867     0.48864811
C      0.20320306     2.11008462    -0.63997288
C      0.45817888     1.32590363    -1.81093982
O      0.07843116     0.16197355    -1.92361552
H     -0.91676211    -0.01233072    -0.51512098
H     -0.55495217     2.05528684     1.47175958
H      0.56980623     3.12079589    -0.52314282
H      1.24641336     1.79300394    -2.55903497
9
malonaldehyde train delta=-0.805
O     -1.07789675     0.32465513     0.39404779
C     -0.41980842     1.47790036     0.42258033
C      0.40839851     1.98483531    -0.51351380
C      0.50509102     1.35348534    -1.76238641
O      0.10507860     0.22770476    -1.94106478
H     -0.84349440    -0.16112509    -0.45191834
H     -0.53441305     1.88507993     1.38038325
H      0.66354932     3.09467538    -0.31568753
H      0.81191362     2.05509970    -2.51206969
9
malonaldehyde train delta=-0.886
O      0.05392912     1.35418780     0.92893110
C      0.94364669     1.43567554    -0.06904963
C      0.66438736     1.24492230    -1.41559308
C     -0.56362225     0.64336176    -1.80771085
O     -1.53732174     0.39633830    -1.11674754
H     -0.89343864     1.06375071     0.58210131
H      1.87597838     1.67600254     0.35874458
H      1.35121688     1.04715334    -2.14865637
H     -0.58040265     0.22210177    -2.87248202
9
malonaldehyde train delta=-0.903
O     -0.14911825     0.25338427     0.70693506
C     -1.17563806     0.72362327    -0.02181697
C     -1.09754066     1.33611369    -1.18083600
C      0.22434299     1.53664584    -1.78358641
O      1.28923213     1.35021384    -1.30560170
H      0.72614525     0.60772220     0.36057885
H     -2.08567270     0.56176999     0.51442251
H     -1.97642319     1.66599246    -1.70666795
H      0.12583024     2.03986333    -2.79321927
9
malonaldehyde train delta=-0.786
O     -0.74480938    -0.21224364    -1.33285407
C     -0.40498493     0.87819903    -1.97170122
C      0.19286960     1.88147091    -1.27541226
C      0.48119682     1.78577268     0.13150491
O     -0.07580880     1.01974209     0.91301927
H     -0.58399057    -0.07647404    -0.37557975
H     -0.48658453     0.78555351    -3.02814688
H      0.46676162     2.78128334    -1.70448990
H      1.08326227     2.64414943     0.56069134
9
malonaldehyde train delta=-0.808
O     -1.36731078     0.43070798    -1.59507882
C     -0.24336007     1.09055173    -1.94446566
C      0.70443521     1.60279121    -1.11956246
C      0.70337866     1.40703500     0.36949376
O     -0.18816998     0.73702797     0.85643872
H     -1.25565748     0.11625612    -0.56946729
H     -0.19917095     1.25441318    -3.04129795
H      1.50912001     2.14461414    -1.67211583
H      1.43468887     2.18026334     0.78278763
9
malonaldehyde train delta=-0.874
O     -1.06021749    -0.03800514    -1.48311886
C     -0.30180112     0.99561880    -1.92789860
C      0.47380811     1.78212078    -1.17078964
C      0.57417794     1.70932207     0.28032729
O     -0.16177121     0.91061372     0.84010727
H     -0.84406737    -0.14652576    -0.52805327
H     -0.36170307     1.18993748    -2.99626459
H      0.92704166     2.63561550    -1.69886942
H      1.44019366     2.09298345     0.66769060
9
malonaldehyde train delta=-0.858
O     -1.26111927     1.83780379    -1.45356399
C     -0.05920571     1.47484401    -1.89936757
C      0.83951178     0.76430865    -1.14648539
C      0.56173071     0.41924533     0.16485873
O     -0.45308756     0.53263901     0.85787356
H     -1.39963592     1.49713009    -0.47848751
H      0.11473833     1.76755138    -3.01337089
H      1.72487923     0.41803578    -1.67480645
H      1.46909572     0.06150960     0.52235460
9
malonaldehyde train delta=-1.354
O      0.43405160    -0.53678215    -0.95787790
C      0.42585456     0.46647643    -1.71744687
C      0.05578885     1.71324731    -1.44061462
C     -0.59700452     2.15960804    -0.20130052
O     -0.92034909     1.55647727     0.77711500
H      0.05520763    -0.42812985    -0.03652971
H      0.63707527     0.19963064    -2.72310379
H     -0.03633978     2.37837903    -2.26541484
H     -1.02313964     3.15585940    -0.40340825
9
malonaldehyde train delta=-1.254
O     -1.82130559     1.12013267    -0.72136649
C     -0.99402500     1.44629511     0.20049446
C      0.37172539     1.22934922     0.24528863
C      1.17415999     0.80564371    -0.87759336
O      0.81249779     0.58602819    -2.02851252
H     -1.29276223     0.71368819    -1.39555090
H     -1.47702508     1.71592984     1.16165690
H      0.77643205     1.52747073     1.18257075
H      2.13510416     0.38017526    -0.39948489
9
malonaldehyde train delta=-1.020
O     -1.68615824     0.65042233    -0.44236190
C     -0.92616303     1.43881677     0.26959104
C      0.39548559     1.70947393     0.00393206
C      1.10623098     1.13526696    -1.11581416
O      0.63667155     0.35960807    -1.92878291
H     -1.23482576     0.47259283    -1.27670748
H     -1.48837705     1.68621928     1.20952183
H      0.99694379     2.29375461     0.64581042
H      2.25265033     1.33096287    -1.06479038
9
malonaldehyde train delta=-1.058
O     -0.13183297    -0.01938907     0.59202499
C     -1.15524713     0.61231202    -0.09457991
C     -1.09768736     1.39130609    -1.18609306
C      0.19418431     1.82110500    -1.69833289
O      1.28152057     1.41502754    -1.22831156
H      0.59868405     0.52571947     0.41259655
H     -2.07841888     0.47896146     0.43064652
H     -1.98492632     1.90145776    -1.43183587
H      0.15434120     2.57124180    -2.49038163
9
malonaldehyde train delta=-0.943
O      0.26662493     0.91229715     0.84646484
C      0.75016559     1.79722348    -0.06643890
C      0.27687985     1.74829042    -1.33920058
C     -0.64362635     0.85258865    -1.87142055
O     -1.23093473     0.02670206    -1.19164322
H     -0.38608618     0.29547282     0.49687139
H      1.55345285     2.33529008     0.28971176
H      0.87195168     2.36227589    -2.01147732
H     -0.75908198     0.80696121    -2.96081515
9
malonaldehyde train delta=-1.039
O     -1.35911342     2.11012778    -0.87682829
C     -1.35279876     0.76112353    -0.86971978
C     -0.30290973    -0.07022146    -0.79152882
C      0.95756753     0.45334114    -0.35598799
O      1.39171036     1.56705402    -0.51407837
H     -0.45383708     2.38313564    -0.61387824
H     -2.29467468     0.22051241    -1.09246846
H     -0.34547212    -1.13447306    -0.64558159
H      1.57797129    -0.37426939     0.13080750
9
malonaldehyde train delta=-0.726
O      1.17351141     1.47358085    -0.04920063
C     -0.00819593     1.29795585     0.53706810
C     -1.07779789     0.79273428    -0.04615173
C     -1.01934650     0.60166618    -1.51390229
O     -0.01908944     0.89335515    -2.18742051
H      1.27072293     1.07919904    -1.00191398
H     -0.02752698     1.62217364     1.57399627
H     -2.00370989     0.51281839     0.48864200
H     -1.97022654     0.30528481    -2.02878212
9
malonaldehyde train delta=-1.017
O      0.14069650    -0.55294362    -0.54432025
C      0.74760424     0.29558512    -1.36796172
C      0.40062869     1.53632707    -1.46912346
C     -0.59700380     2.21928392    -0.58933373
O     -1.20494248     1.79537128     0.41197470
H     -0.58243687    -0.07485342    -0.03699880
H      1.55265155    -0.13000075    -2.04016698
H      0.75608081     2.11769004    -2.35110066
H     -0.86053241     3.27200660    -0.99439137
9
malonaldehyde train delta=-0.822
O     -0.12607928     2.03421582     0.53791356
C     -1.11231629     1.34351920     0.07603741
C     -1.10153178     0.61131610    -1.12227084
C      0.17373282     0.36061352    -1.76710554
O      1.26894340     0.64154946    -1.27383819
H      0.69948011     1.88514071    -0.04085896
H     -2.08916793     1.38109717     0.64818542
H     -1.92227107     0.06165770    -1.42907069
H      0.04836111    -0.32948777    -2.65440296
9
malonaldehyde train delta=-1.089
O     -1.61311463     1.62887989    -0.98302548
C     -1.25374734     0.69593336    -0.15393993
C      0.03809941     0.32465701     0.12899823
C      1.15320263     0.74246246    -0.62237369
O      1.12824312     1.51652153    -1.54330721
H     -0.92254462     1.88420833    -1.65611307
H     -2.06252215     0.40106977     0.43097996
H      0.08691198    -0.47898262     0.84848885
H      2.04392487     0.27255735    -0.14073627
9
malonaldehyde train delta=-0.719
O     -0.07755380     1.67100961     0.76377573
C      0.81456369     0.90096929     0.19373848
C      0.71453879     0.40229253    -1.06119731
C     -0.51068923     0.54686599    -1.78337105
O     -1.37043293     1.35334369    -1.53379410
H     -0.95760166     1.62844394     0.17485418
H      1.64606755     0.66125666     0.83213596
H      1.52137372    -0.22048407    -1.51108236
H     -0.68218040    -0.13678738    -2.64957300
9
malonaldehyde train delta=-0.901
O     -0.87975245     0.74446735     0.77450297
C      0.32418464     1.17097043     0.45615340
C      0.96185805     1.37748864    -0.79095988
C      0.18955700     1.18103674    -1.95804314
O     -0.97755820     0.76000638    -1.95917738
H     -1.23599028     0.51019309    -0.11064387
H      0.94970309     1.31927515     1.26358146
H      2.00021971     1.64440308    -0.86008461
H      0.73630699     1.28969082    -2.88166408
9
malonaldehyde train delta=-0.450
O     -1.57106675     1.36832731    -0.29226115
C     -0.48048721     1.51172298     0.45305045
C      0.73557445     1.07302279     0.07277952
C      0.85499073     0.51524611    -1.22915143
O      0.03646592     0.63990452    -2.19772265
H     -1.11285025     1.11437331    -1.26458640
H     -0.66083435     1.85699119     1.49698310
H      1.58305684     1.16903000     0.67983515
H      1.88896004     0.04197505    -1.47278910
9
malonaldehyde train delta=-0.981
O      0.44559533     1.50413563     0.73995757
C     -0.29252890     0.45870491     0.44728723
C     -0.76825726     0.06676434    -0.75422847
C     -0.44118502     0.87430646    -1.92364471
O      0.23075152     1.91282821    -1.89288705
H      0.78682331     1.91762962    -0.04373999
H     -0.69796809    -0.07037813     1.27777092
H     -1.42872778    -0.78137504    -0.98476665
H     -0.81476892     0.41835754    -2.92048937
9
malonaldehyde train delta=-1.238
O      0.66917674    -0.43669265    -1.11047261
C      0.25962038     0.60464038    -1.80219421
C     -0.32977078     1.75560491    -1.45241138
C     -0.65716935     2.10207791    -0.04962042
O     -0.63804178     1.34506227     0.87076855
H      0.25645832    -0.35523029    -0.22935447
H      0.30245264     0.42530022    -2.86810299
H     -0.87584948     2.35199308    -2.18211313
H     -0.97327489     3.15033100     0.09483190
9
malonaldehyde train delta=-0.712
O      0.17092136     0.44679057     0.75452477
C     -0.87869199     1.16280138     0.36668641
C     -0.99616305     1.64116403    -0.88182623
C     -0.11026332     1.32646940    -1.94325262
O      0.92313985     0.67587215    -1.73689832
H      0.77873336     0.50727712    -0.03827501
H     -1.65480891     1.38033272     1.07443111
H     -1.82223804     2.29840565    -1.11723316
H     -0.32552024     1.48343729    -2.98753438
9
malonaldehyde train delta=-0.729
O     -0.73876661     0.26656717     0.51421443
C     -0.44259156     1.56982462     0.47196208
C      0.07530592     2.13418315    -0.68638988
C      0.38190836     1.30272641    -1.81328870
O      0.16437523     0.13442262    -1.90706228
H     -0.58660748    -0.14505588    -0.37994626
H     -0.72999285     1.95101310     1.48611630
H      0.17896244     3.20246097    -0.68140836
H      0.59088687     1.98345889    -2.71689717
9
malonaldehyde train delta=-0.948
O     -1.16111373     0.71387733     0.45977794
C      0.06717375     1.19285345     0.64808676
C      0.81526014     1.45073729    -0.43399565
C      0.47654119     1.15818376    -1.82845916
O     -0.58034229     0.68439081    -2.20897060
H     -1.37579045     0.56448861    -0.47105357
H      0.26620563     1.52795237     1.58926520
H      1.89594588     1.75842982    -0.28101842
H      1.22280101     1.71302980    -2.52853363
9
malonaldehyde train delta=-0.575
O     -0.27207476     0.20666010     0.57372160
C     -1.25658108     0.75978043    -0.10673403
C     -1.02988529     1.38905305    -1.28285988
C      0.32452494     1.69100372    -1.68552434
O      1.33367231     1.20399089    -1.07959856
H      0.61315461     0.48054534     0.14624061
H     -2.20162220     0.45373776     0.29018962
H     -1.83999204     1.85900825    -1.83382359
H      0.40641598     2.29450641    -2.64113035
9
malonaldehyde train delta=-0.862
O     -0.10819497     2.00354090     0.57439472
C     -1.12862734     1.40075106     0.01595903
C     -1.04083314     0.57286862    -1.04617519
C      0.15232293     0.24808403    -1.71207095
O      1.24172960     0.74155834    -1.34874944
H      0.59309295     1.72622060     0.01337639
H     -2.08973189     1.63659851     0.34842176
H     -1.89838113     0.12200665    -1.48828763
H      0.01165578    -0.46615940    -2.56922965
9
malonaldehyde train delta=-0.811
O     -0.80019185    -0.35939988    -0.08521264
C      0.45718706    -0.06407375    -0.46624000
C      0.90018226     1.10686456    -0.96019653
C      0.10159434     2.25120771    -1.20332744
O     -1.03209415     2.24932704    -0.75964950
H     -1.37092399     0.51543592    -0.17901791
H      1.05613410    -0.98163899    -0.51821441
H      1.94646200     1.16900742    -1.26793408
H      0.62450362     3.19845297    -1.66118196
9
malonaldehyde train delta=-0.733
O     -1.27434898     2.08305830    -0.52558806
C     -0.90073631     1.15991931     0.30003904
C      0.11558114     0.20366477     0.07740728
C      0.79113854     0.27847031    -1.11850688
O      0.66229942     1.14330132    -1.95865111
H     -0.65308880     1.99977122    -1.27714813
H     -1.34908745     1.12526359     1.34408196
H      0.44048549    -0.44319607     0.92302348
H      1.74847930    -0.43287139    -1.22882379
9
malonaldehyde train delta=-0.984
O      1.33553537     0.79693050    -0.08858291
C      0.46068660     1.71713319     0.28312947
C     -0.79227387     1.75641940    -0.21231554
C     -1.23984601     0.93419009    -1.32172244
O     -0.63416872     0.07640855    -1.93553523
H      1.00970032     0.26486222    -0.85778332
H      0.84981161     2.43867572     0.90356570
H     -1.51302692     2.54632012     0.09836744
H     -2.21772701     1.51780747    -1.79209368
9
malonaldehyde train delta=-0.971
O     -0.15011079     0.32715610     0.76676676
C     -1.02990029     1.10875670     0.23773618
C     -0.98893856     1.59109934    -1.05486559
C      0.12858726     1.40429317    -1.90633481
O      1.14586531     0.83538075    -1.58738588
H      0.72641374     0.29698706     0.27010685
H     -1.89277035     1.20938339     0.84228396
H     -1.69141893     2.30522207    -1.43428133
H      0.03998972     1.95734897    -2.86427625
9
malonaldehyde train delta=-1.160
O     -0.69934275     2.56320279    -0.34522778
C     -0.72533195     1.43557975     0.35244539
C     -0.13796640     0.25236701     0.09328893
C      0.24032479    -0.07516396    -1.26944085
O      0.69218311     0.69121016    -2.06112691
H     -0.38943004     2.31357494    -1.22185943
H     -1.41451135     1.68895780     1.21888174
H     -0.29988431    -0.65272096     0.82234176
H      0.14987606    -1.14058283    -1.47134697
9
malonaldehyde train delta=-0.563
O     -0.41645260     1.64419940     0.75816867
C      0.28505853     2.13585315    -0.25413345
C      0.41627168     1.51258072    -1.43448756
C     -0.11751618     0.18374402    -1.63586918
O     -0.65826079    -0.49278103    -0.74872980
H     -0.72530546     0.64314428     0.45252889
H      0.51964503     3.13442552    -0.12721989
H      0.94449990     2.06202282    -2.12620511
H     -0.04586591    -0.18107497    -2.66775250
9
malonaldehyde train delta=-1.207
O      0.41008509     0.43858283     0.76710756
C     -0.59387024     1.26445202     0.52130040
C     -1.09346559     1.57243886    -0.71087623
C     -0.38547812     1.26843194    -1.95994183
O      0.76250995     0.76133368    -2.07167035
H      0.60506922    -0.01209706    -0.05533222
H     -1.04233527     1.68082581     1.45098534
H     -2.06251298     2.03605481    -0.84592037
H     -0.92210124     1.49857732    -2.87216046
9
malonaldehyde train delta=-0.535
O     -1.30451569     0.50233442     0.17647251
C     -0.46065173     1.43807475     0.50104412
C      0.50337841     1.89496088    -0.35998660
C      0.68158618     1.25666317    -1.63271726
O      0.09307714     0.24380521    -2.01043473
H     -0.87535091     0.03516087    -0.71578877
H     -0.55448983     1.88021846     1.44328291
H      1.13925332     2.77685646    -0.10708393
H      1.42784370     1.79759367    -2.24929213
9
malonaldehyde train delta=-0.509
O      0.58558319     1.14546061     0.65379598
C     -0.67583355     0.77806103     0.47480257
C     -1.19886330     0.69350034    -0.74073595
C     -0.43803419     1.10142242    -1.89793418
O      0.77034981     1.26252878    -1.87133578
H      0.99524910     1.17764789    -0.32196962
H     -1.18908651     0.68240521     1.41834678
H     -2.22684239     0.54856753    -0.91983947
H     -0.87891802     1.27825118    -2.83970854
9
malonaldehyde train delta=-0.594
O     -0.77843402     2.31782774    -1.15954238
C     -0.00930891     1.50711090    -1.84813251
C      0.45918939     0.28538724    -1.34396122
C      0.22958965    -0.03350013     0.03864067
O     -0.38416206     0.80800149     0.78301975
H     -0.88571169     1.90017786    -0.26031099
H      0.18242276     1.89359448    -2.84211798
H      0.97170574    -0.32774265    -2.03754452
H      0.78811114    -0.98553276     0.29806195
9
malonaldehyde train delta=-0.785
O      0.55425970     1.32987204     0.68854090
C     -0.50533875     0.61318681     0.43997637
C     -1.07006051     0.35999667    -0.73303365
C     -0.43082008     0.92834358    -1.90567432
O      0.53297504     1.67777445    -1.88215325
H      1.02795328     1.54240230    -0.16954080
H     -0.95532854     0.25122299     1.36450143
H     -1.98102226    -0.28181028    -0.86225328
H     -0.75472522     0.55222928    -2.85607666
9
malonaldehyde train delta=-0.631
O     -1.40207726     0.26145176    -0.13434048
C     -0.95620417     1.41704322     0.22390449
C      0.15004343     2.07089194    -0.35060425
C      0.96827645     1.39019104    -1.32913552
O      0.68979784     0.21572541    -1.72330040
H     -0.68992599    -0.03876930    -0.82401451
H     -1.55762006     2.15556079     0.87301682
H      0.41373177     3.15217700     0.02086457
H      1.73368297     2.02463286    -1.78923970
9
malonaldehyde train delta=-0.599
O      0.36492853     1.63306953     0.63527687
C     -0.11999343     0.46407838     0.47410215
C     -0.59971545    -0.05823880    -0.71148278
C     -0.37071721     0.77589543    -1.89531687
O     -0.04691588     1.96887000    -1.84855170
H      0.45073796     2.12744948    -0.28549591
H     -0.19642432    -0.26293654     1.30360572
H     -0.91333765    -1.09397823    -0.94725883
H     -0.68537713     0.30041729    -2.88647321
9
malonaldehyde train delta=-1.077
O     -1.03044572    -0.04685441    -1.48436358
C     -0.27079684     0.95718101    -1.91667311
C      0.44451415     1.80890036    -1.20162552
C      0.46822523     1.73188530     0.22119502
O     -0.06950777     0.87645579     0.90363288
H     -1.22693305     0.09596225    -0.56618851
H     -0.27116921     1.02597064    -2.97476212
H      1.02688044     2.63686306    -1.67928023
H      0.92124069     2.56654429     0.61438365
9
malonaldehyde train delta=-0.708
O     -1.41145343     0.76545208     0.18019674
C     -0.16460570     1.06560027     0.60456486
C      0.77297196     1.46512708    -0.25234871
C      0.71008729     1.15879334    -1.63101746
O     -0.30078948     0.75714225    -2.20555743
H     -1.33886813     0.72803709    -0.83099153
H     -0.04196501     1.28746799     1.67032163
H      1.82911527     1.60733876     0.13602233
H      1.60382699     1.31493839    -2.27863573
9
malonaldehyde train delta=-0.596
O     -1.24522386     1.88474745    -0.06666469
C     -0.29275547     1.37243099     0.54515769
C      0.61258589     0.47042523    -0.01987167
C      0.70287603     0.44803060    -1.45318680
O     -0.23056168     0.79039512    -2.24397894
H     -0.97449699     1.68556797    -1.06922896
H     -0.28192023     1.58019409     1.57779686
H      1.52498963     0.04585818     0.47037158
H      1.53543078    -0.02802393    -1.94003993
9
malonaldehyde train delta=-0.699
O     -0.57398768     0.43046250     0.64878471
C     -1.35008257     0.91214473    -0.31607389
C     -0.88265876     1.35928024    -1.49897055
C      0.55617092     1.43982614    -1.66714919
O      1.40339597     1.09518738    -0.80663578
H      0.28543741     0.38537507     0.20579432
H     -2.37867261     0.84306279    -0.05949475
H     -1.51901654     1.59805660    -2.33397098
H      0.86766577     1.97787126    -2.53341872
9
malonaldehyde train delta=-0.751
O     -1.18168912     2.03855827    -0.15047940
C     -0.28480502     1.39176982     0.50531797
C      0.67631858     0.53871305    -0.04775267
C      0.50891520     0.11041609    -1.41599554
O     -0.14979437     0.85512761    -2.14153986
H     -1.02354222     2.10168492    -1.18392428
H     -0.36768306     1.48413910     1.66060074
H      1.28648766    -0.03852146     0.53702101
H      1.05856873    -0.72816493    -1.87799864
9
malonaldehyde train delta=-0.862
O      1.44002393     1.43890300    -0.43496428
C      0.30999088     1.76477817     0.25138223
C     -0.96219868     1.32010924    -0.00826533
C     -1.27239904     0.49995882    -1.11643018
O     -0.43305070     0.16180460    -1.93903423
H      1.08805691     0.83986806    -1.13626771
H      0.44423483     2.37414203     1.17996221
H     -1.75865496     1.61051148     0.69826616
H     -2.27892906     0.23696886    -1.32735544
9
malonaldehyde train delta=-0.849
O     -1.23501255     0.38482491     0.22557375
C     -1.31004720     1.54477982    -0.42287503
C     -0.24609254     1.98917331    -1.19191613
C      0.91596484     1.20858074    -1.42579202
O      1.17704153     0.22204148    -0.77510368
H     -0.40749670    -0.04245686     0.03500706
H     -2.07130810     2.23727480    -0.18279048
H     -0.17654185     3.00749636    -1.45953970
H      1.76354046     1.68266522    -2.02709873
9
malonaldehyde train delta=-0.819
O     -0.38642592    -0.34067979    -1.56005422
C     -0.44045216     0.92750391    -1.91065938
C     -0.15868864     1.98509180    -1.18325993
C      0.19151476     1.90122120     0.24215644
O      0.12520634     0.91626555     0.92781292
H     -0.05325735    -0.33806799    -0.51272278
H     -0.77441233     1.07235232    -2.93644981
H     -0.13428566     2.95223789    -1.56799090
H      0.60728105     2.94702857     0.70615090
9
malonaldehyde train delta=-0.740
O      1.30763700     0.89732913    -0.24309573
C      0.38086459     1.72701775     0.20885663
C     -0.87857045     1.75841979    -0.20236551
C     -1.25660646     0.81037777    -1.21766686
O     -0.45327184     0.13209774    -1.84983346
H      1.00771333     0.30780125    -0.96341704
H      0.88178221     2.21781833     1.08409796
H     -1.59271531     2.53717736     0.03508185
H     -2.41798526     0.57227234    -1.18859253
9
malonaldehyde train delta=-0.833
O     -1.14075141    -0.10854068    -0.28612533
C      0.17962698    -0.06022025    -0.13724125
C      0.97192068     0.94198615    -0.48512486
C      0.42298829     2.14845939    -1.16470573
O     -0.76476151     2.22126288    -1.27016549
H     -1.51029598     0.75814326    -0.52216694
H      0.39404046    -1.04063961     0.25647513
H      2.04993288     0.92107310    -0.48543802
H      1.12393530     2.78196379    -1.64553250
9
malonaldehyde train delta=-0.806
O      0.97258735     0.90944977     0.45559637
C     -0.29594677     1.15723094     0.58177556
C     -1.17295929     1.30452197    -0.47535155
C     -0.78779602     0.98657972    -1.75821530
O      0.33544665     0.82506334    -2.18266591
H      1.19930681     1.00471440    -0.55772344
H     -0.71283724     1.22318085     1.60478235
H     -2.20375255     1.61195272    -0.22647657
H     -1.65419897     0.72439516    -2.37734448
9
malonaldehyde train delta=-0.579
O     -1.20258594     0.38593703     0.25891895
C     -0.52727999     1.54167665     0.37601596
C      0.52126743     1.90526417    -0.36920989
C      0.74825194     1.26942508    -1.64259698
O     -0.01376952     0.27663935    -1.98065107
H     -0.92364810    -0.07321529    -0.65855476
H     -0.67259291     1.88276432     1.36476663
H      1.17113110     2.78519979    -0.05835946
H      1.42393334     1.71530400    -2.34421869
9
malonaldehyde train delta=-0.838
O     -1.54165476     0.93897431    -0.08824266
C     -0.54804267     1.58409821     0.41333472
C      0.71245914     1.52979997    -0.12424402
C      0.89723137     0.82506089    -1.37577357
O      0.05568519     0.36556267    -2.10457494
H     -1.28019969     0.65688230    -0.95510667
H     -0.76636491     1.98227132     1.42060571
H      1.58917998     1.99647851     0.41922337
H      1.95270198     0.73911630    -1.58077628
9
malonaldehyde train delta=-0.506
O      0.38028345     0.63219519     0.68230094
C     -0.81618274     1.04476079     0.32054404
C     -1.21012656     1.55076629    -0.87053463
C     -0.19374413     1.25756174    -1.83129958
O      0.90175088     0.73819405    -1.72062861
H      0.89787344     0.57367613    -0.19942058
H     -1.57514233     1.03793704     1.10136861
H     -2.16417468     1.86619596    -1.16168667
H     -0.37932654     1.53146986    -2.82723718
9
malonaldehyde train delta=-1.021
O     -1.53845827     0.32710521    -0.20234001
C     -0.33145457     0.21022258     0.30925345
C      0.84122022     0.74932978    -0.21932537
C      0.86534343     1.74342700    -1.30823788
O     -0.18041007     2.05012805    -1.87529119
H     -1.66743256     0.94848799    -1.00589810
H     -0.39437171    -0.61687630     1.06132407
H      1.76187252     0.53322028     0.42252951
H      1.77181860     2.25048313    -1.41030027
9
malonaldehyde train delta=-0.889
O     -0.18256362     1.72122422     0.71650255
C      0.56623820     1.97659601    -0.30627479
C      0.60094489     1.28817068    -1.43256661
C     -0.36618763     0.19262644    -1.62330830
O     -1.08020341    -0.21286980    -0.76361608
H     -0.84988890     1.06232365     0.54609401
H      1.12637787     2.92947203    -0.09871558
H      1.29413393     1.64857227    -2.09397803
H     -0.41336293    -0.29004492    -2.62832396
9
malonaldehyde train delta=-0.796
O     -0.78169073     2.33327622    -1.22752633
C     -0.03601838     1.47938542    -1.95898172
C      0.49488254     0.35194028    -1.32165239
C      0.35162155     0.09731732     0.12147638
O     -0.52011954     0.63639251     0.85199426
H     -0.87497082     1.93359841    -0.32531262
H      0.14316004     1.83740802    -2.94039354
H      1.23651081    -0.20204731    -1.89621806
H      1.19643894    -0.62388002     0.36054808
9
malonaldehyde train delta=-0.480
O     -1.29891031     0.73849066     0.19540286
C     -0.12824143     1.18398567     0.62030609
C      0.81708125     1.53420136    -0.32159146
C      0.68593514     1.04957457    -1.68141565
O     -0.45842161     0.74178551    -2.13025541
H     -1.23023268     0.47241069    -0.82693088
H     -0.05940491     1.49812330     1.64859288
H      1.88573344     1.66521075     0.04738471
H      1.50903969     1.04174985    -2.37572840
9
malonaldehyde train delta=-0.614
O      0.69756123     0.25340250     0.32889206
C      0.80578284     1.53782989    -0.00894007
C      0.10212260     2.12164538    -0.97955791
C     -0.97869133     1.33806015    -1.55280847
O     -1.24365147     0.16293610    -1.28587138
H     -0.11813856    -0.08949040    -0.14870916
H      1.60247138     2.01992355     0.44907098
H      0.17008987     3.13425299    -1.22440927
H     -1.57494969     1.94051232    -2.28151210
9
malonaldehyde train delta=-0.570
O     -1.34351434     1.77260586    -1.09855606
C     -1.35921480     0.63004836    -0.57432100
C     -0.14675330    -0.00328538    -0.22561140
C      1.06338686     0.62204947    -0.51917541
O      1.15824360     1.81055288    -0.83683417
H     -0.36753219     2.07379725    -1.25100242
H     -2.32296002     0.21454697    -0.45397722
H     -0.34669084    -0.91328954     0.33086321
H      1.95831015    -0.09680683    -0.54111113
9
malonaldehyde train delta=-0.604
O     -0.02707574     0.09737886     0.53820520
C     -1.11809745     0.54444864    -0.07423881
C     -1.12895315     1.41654661    -1.13185318
C      0.13245418     1.76940650    -1.63827821
O      1.21816418     1.40361209    -1.25140131
H      0.81485563     0.51839140     0.08149181
H     -2.03473708     0.06517675     0.31092893
H     -2.09545997     1.88545114    -1.39564686
H      0.01541328     2.47259300    -2.46614094
9
malonaldehyde train delta=-0.753
O      0.43245717     1.53958240     0.67973127
C     -0.26039935     0.45987456     0.52007112
C     -0.65033290     0.01267080    -0.74484089
C     -0.40700937     0.82264465    -1.92894064
O      0.09316721     1.96456594    -1.88458806
H      0.31766178     2.11367448    -0.14295341
H     -0.51930840    -0.21442834     1.33049557
H     -1.16540555    -0.87041450    -0.98346286
H     -0.57751960     0.28151568    -2.93699587
9
malonaldehyde train delta=-0.891
O     -1.51947238     1.54485909    -1.09489944
C     -1.26333242     0.76434214    -0.08721668
C     -0.01766539     0.16422412     0.03340429
C      1.13847779     0.75477170    -0.56128103
O      1.10145824     1.65980616    -1.44390982
H     -0.74781307     1.90526045    -1.57741073
H     -2.23097173     0.50440733     0.40233329
H      0.04890120    -0.46397200     0.88388437
H      1.99205402     0.14622854    -0.41086407
9
malonaldehyde train delta=-0.727
O     -0.47201345    -0.27918166    -1.42342243
C     -0.40497455     0.87729831    -1.97265659
C     -0.08379571     1.96750150    -1.22396164
C      0.21064391     1.88580688     0.18321760
O      0.12455197     0.90405218     0.91828146
H     -0.43165679    -0.11169181    -0.40564541
H     -0.74679730     0.97463165    -3.00360258
H     -0.06313881     3.05596114    -1.62007542
H      0.72017667     2.92515560     0.63392552
9
malonaldehyde train delta=-0.730
O      0.29651755     1.68338398     0.66110722
C      0.02116167     0.44688973     0.43859250
C     -0.34084563    -0.11513652    -0.70877046
C     -0.49085120     0.77163529    -1.88920944
O     -0.19795153     1.96861237    -1.86709723
H      0.31001158     2.20491396    -0.21237716
H      0.13836423    -0.24741455     1.25037577
H     -0.74001581    -1.11755824    -0.78661647
H     -0.90827055     0.31452387    -2.81610264
9
malonaldehyde train delta=-1.182
O      0.31381367    -0.30726996    -1.59240042
C     -0.22143569     0.86106928    -1.95563233
C     -0.60406208     1.93248681    -1.15888912
C     -0.34824850     1.91613238     0.27439047
O      0.06342831     0.98160752     0.96068621
H      0.47867384    -0.38051359    -0.64531425
H     -0.56297715     0.93934841    -3.00245530
H     -0.95728615     2.86314832    -1.56479215
H     -0.38073209     2.85649675     0.73593657
9
malonaldehyde train delta=-0.517
O      1.34668427     1.46541004    -0.48437910
C      0.23809861     1.77783350     0.28352117
C     -0.97847115     1.24440829     0.04966926
C     -1.15708830     0.39028784    -1.04808493
O     -0.34789116     0.26310968    -1.98502184
H      0.83691430     1.01640148    -1.28682666
H      0.34322390     2.53938713     1.00521631
H     -1.78433774     1.50401835     0.61959920
H     -2.10395461     0.01991057    -1.28427796
9
malonaldehyde train delta=-0.819
O     -1.58279266     1.51533551    -1.02910516
C     -1.15751260     0.98707947     0.10389054
C      0.16330151     0.58253846     0.30921310
C      1.10376203     0.59775494    -0.76888172
O      0.93242591     1.28350223    -1.76065525
H     -0.77893648     1.80020421    -1.52169047
H     -1.82066274     0.84659003     0.91989575
H      0.30222042     0.05677406     1.24798045
H      2.02877802     0.05560479    -0.43665793
9
malonaldehyde train delta=-0.813
O     -0.25391049     2.30175518     0.12471634
C     -1.12810988     1.32567769     0.03370785
C     -0.95781508     0.25417053    -0.77701044
C      0.32759048     0.06077027    -1.38505600
O      1.14908500     0.91891348    -1.45325328
H      0.48509429     2.17580780    -0.43467330
H     -2.01019728     1.67675228     0.56150910
H     -1.66835738    -0.43995044    -0.70828003
H      0.49649547    -1.02248523    -1.60059185
9
malonaldehyde train delta=-0.967
O     -0.06042438     0.36644071     0.77108335
C     -1.04098486     1.03185615     0.27703277
C     -0.97282521     1.69735623    -0.98520232
C      0.10255395     1.42663496    -1.89773563
O      1.09591529     0.78302508    -1.67290716
H      0.61022962     0.09488144     0.09423438
H     -1.85609218     1.19501737     0.95219370
H     -1.81282811     2.31569813    -1.40261561
H     -0.13587182     1.75349648    -2.93491183
9
malonaldehyde train delta=-0.943
O     -1.40183368     1.97572843    -0.92711445
C     -1.28098136     0.64212684    -0.86474396
C     -0.22568656    -0.11700785    -0.56138203
C      1.02854746     0.59350466    -0.33346402
O      1.25689652     1.69554352    -0.69358410
H     -0.56146239     2.41003826    -0.55842198
H     -2.23891860     0.22551031    -0.85476254
H     -0.21575134    -1.16347057    -0.45169977
H      1.71419731    -0.03567951     0.19181072
9
malonaldehyde train delta=-0.765
O     -0.00085113     0.06133668     0.55321769
C     -1.10409559     0.54410607    -0.03070102
C     -1.09787302     1.35704190    -1.12824202
C      0.07642517     1.82396712    -1.68376718
O      1.19601436     1.45549038    -1.27029772
H      0.84877106     0.56329691     0.25071312
H     -1.98054328     0.13849092     0.40586025
H     -2.02156121     1.59643102    -1.53603713
H     -0.07120594     2.47337285    -2.55268803
9
malonaldehyde train delta=-0.914
O     -1.33698543     0.47697248    -1.57134459
C     -0.23942447     1.14760429    -1.95413829
C      0.74022111     1.57633727    -1.09470767
C      0.71379772     1.28231417     0.31116962
O     -0.28408406     0.80792412     0.86540972
H     -1.38495452     0.46038812    -0.61184784
H     -0.03754449     1.06324755    -3.01013503
H      1.64074955     1.99963834    -1.57223674
H      1.72531211     1.44958073     0.69994716
9
malonaldehyde train delta=-0.903
O     -0.03727837    -0.48614835    -0.38124751
C      0.70474961     0.17075684    -1.19615719
C      0.55862452     1.53481772    -1.38497305
C     -0.46907799     2.30382920    -0.67334770
O     -1.23549119     1.77771081     0.06924439
H     -0.69176989    -0.04987461     0.25797947
H      1.36370284    -0.44614202    -1.75103937
H      1.03808292     1.98715284    -2.25515218
H     -0.44003319     3.41294243    -0.88174047
9
malonaldehyde train delta=-0.915
O     -0.41500496    -0.49588530    -0.20887690
C      0.66341821     0.01598443    -0.88912137
C      0.84681295     1.30818125    -1.21212039
C     -0.24028115     2.28212528    -0.90336979
O     -1.27801287     2.11082672    -0.33160644
H     -0.97461753     0.27592151    -0.05343388
H      1.50413929    -0.59983655    -1.06326130
H      1.80367130     1.63073891    -1.63507518
H     -0.04060730     3.25822911    -1.23582677
9
malonaldehyde train delta=-0.911
O      1.22681662     1.77317484    -0.15871016
C      0.10504645     1.50709415     0.47480862
C     -0.98186730     0.82655202     0.01449031
C     -1.08233028     0.49073514    -1.36788884
O     -0.19718134     0.51085116    -2.21212787
H      1.08166321     1.31961260    -1.04118964
H      0.10549604     1.68567390     1.49416884
H     -1.67798505     0.24952900     0.65679631
H     -1.97875413     0.01478635    -1.68640454
9
malonaldehyde train delta=-0.447
O     -0.94044555     2.30623669    -0.93747709
C     -1.33806357     1.05554336    -0.98738931
C     -0.56612506    -0.04064863    -0.67187744
C      0.80626946     0.21822415    -0.30817346
O      1.28789137     1.28298352    -0.48749174
H      0.06142748     2.11535420    -0.69048708
H     -2.40313412     0.92783514    -1.07160772
H     -0.81292775    -1.04723792    -0.75347290
H      1.37200809    -0.57171867     0.19775931
9
malonaldehyde train delta=-0.766
O     -1.53025131     1.63674314    -1.03215678
C     -1.18301432     0.79735423     0.04106046
C      0.04553357     0.30354226     0.19180880
C      1.14818636     0.80739391    -0.63025838
O      0.95946649     1.38974348    -1.71178775
H     -0.75856840     1.46262137    -1.57460100
H     -2.06718110     0.53151722     0.70372584
H      0.36297395    -0.17119031     1.12061408
H      2.10407282     0.40921222    -0.27037552
9
malonaldehyde train delta=-0.484
O     -0.49341218    -0.40891101    -0.19669595
C      0.63305763     0.03630659    -0.72872476
C      0.77793235     1.28274482    -1.22374678
C     -0.10698059     2.32257918    -0.90340560
O     -1.21346717     1.98993779    -0.45287982
H     -1.06463765     0.48585264    -0.11806721
H      1.41197046    -0.57963175    -0.94737459
H      1.71694176     1.45183757    -1.71276698
H      0.04790737     3.31972661    -1.25496587
9
malonaldehyde train delta=-0.855
O     -0.27871757     2.34235730     0.04907466
C     -1.12559930     1.32354156     0.04411346
C     -0.94148885     0.20987850    -0.69827623
C      0.32840851     0.07680156    -1.35827551
O      1.15711496     0.92059455    -1.48178231
H      0.37639852     2.22860887    -0.58009339
H     -1.80975779     1.53908840     0.84452377
H     -1.72420853    -0.65545513    -0.65753135
H      0.49216610    -1.03182045    -1.51654704
9
malonaldehyde train delta=-1.011
O     -1.47562412     0.81205462     0.14496019
C     -0.27214785     1.17599334     0.58170008
C      0.82620853     1.34405505    -0.21726683
C      0.78841451     1.05529333    -1.61844584
O     -0.22254563     0.77979934    -2.19750560
H     -1.65425725     0.91687345    -0.81621025
H     -0.21821367     1.53979191     1.61172503
H      1.76902376     1.53854432     0.30692324
H      1.67268965     1.19004742    -2.27090558
9
malonaldehyde train delta=-0.690
O     -0.05786118     1.47447477     0.78366292
C      0.91161968     1.24124644    -0.03183519
C      0.79606257     0.81877209    -1.31125426
C     -0.52527878     0.56309762    -1.76065398
O     -1.53892022     0.84389854    -1.13406915
H     -0.83277790     1.21388186     0.29942390
H      1.80662284     1.65385476     0.30564733
H      1.67468638     0.67267969    -1.83949376
H     -0.72202483     0.06505083    -2.77811535
9
malonaldehyde train delta=-0.665
O     -1.13857640     0.05012144    -0.24612744
C      0.15583190    -0.08032399    -0.05594410
C      1.00706315     0.83829912    -0.49891447
C      0.40793167     2.03563848    -1.11833125
O     -0.75861372     2.22982982    -1.42618454
H     -1.49257794     0.81350820    -0.84542436
H      0.30195369    -1.04494877     0.31576630
H      1.99757075     0.97969525    -0.20473538
H      1.16000696     2.82374926    -1.18567560
9
malonaldehyde train delta=-0.637
O     -1.22445609     0.02780440    -0.19884758
C      0.04996473    -0.02975432    -0.06728548
C      0.93627358     0.88684544    -0.48894298
C      0.53244117     2.06285392    -1.13675955
O     -0.65264235     2.17179980    -1.44661450
H     -1.50612820     0.78886267    -0.90503811
H      0.38732813    -0.87762474     0.54394426
H      2.01605933     0.60174185    -0.46846657
H      1.36755995     2.82537722    -1.27191267
9
malonaldehyde train delta=-0.570
O     -1.41021298     0.12677606    -0.27847468
C     -0.14527261     0.08199446     0.13979610
C      0.90746249     0.78329763    -0.37980275
C      0.71464668     1.91788774    -1.23862148
O     -0.44904808     2.17947319    -1.55267389
H     -1.26559814     0.93903900    -0.91948828
H      0.16589983    -0.71189357     0.73268299
H      1.97144694     0.49123330    -0.06632447
H      1.61178113     2.54203798    -1.45467766
9
malonaldehyde train delta=-0.774
O     -1.23893770     2.11871217    -0.81711894
C     -1.34475272     0.79296658    -0.97293319
C     -0.38351162    -0.06269873    -0.68612734
C      0.98221871     0.38309193    -0.39103412
O      1.30398369     1.57237571    -0.53104640
H     -0.28260034     2.29418523    -0.71200983
H     -2.39600989     0.40000961    -1.21703778
H     -0.43577502    -1.09444954    -0.77077339
H      1.65045046    -0.35096675     0.18102893
9
malonaldehyde train delta=-1.044
O     -1.39919764     1.89715442    -1.03527950
C     -1.36272981     0.60650101    -0.69740113
C     -0.20097328    -0.06759064    -0.41481310
C      1.08084982     0.58030834    -0.44041559
O      1.25839637     1.77155644    -0.73654883
H     -0.60971978     2.36048017    -0.91517981
H     -2.43067293     0.22391762    -0.76225591
H     -0.17669274    -1.08887271    -0.02341891
H      1.91260068    -0.03006796    -0.04408575
9
malonaldehyde train delta=-0.649
O     -0.96412096     2.32044957    -0.33400523
C     -0.32332331     1.48553117     0.51954427
C      0.21328387     0.31550967     0.09018812
C      0.40278420    -0.01990283    -1.28962467
O      0.11868831     0.79743680    -2.18744460
H     -0.49825817     2.14229626    -1.29237405
H     -0.31212409     1.68734444     1.56350103
H      0.66894557    -0.41653125     0.80901250
H      0.61473923    -1.07051510    -1.60680997
9
malonaldehyde train delta=-0.541
O     -0.44387207     1.55944081     0.79943335
C     -0.03049695     2.22040294    -0.29357089
C      0.18845983     1.61084297    -1.49766509
C      0.08577282     0.15157771    -1.60063702
O     -0.35267894    -0.55620052    -0.69257733
H     -0.46150331     0.51949130     0.51360367
H      0.01557139     3.29799834    -0.04415626
H      0.51429496     2.13600449    -2.33456874
H      0.23690053    -0.27279054    -2.63813891
9
malonaldehyde train delta=-0.506
O     -1.55275216     1.42881811    -0.39609306
C     -0.70106288     0.87180180     0.39177872
C      0.49084880     0.46428095     0.07541609
C      1.02731575     0.85639869    -1.20408490
O      0.28452084     1.34902531    -2.06444162
H     -1.15903740     1.53903901    -1.40775646
H     -1.00846653     0.56770832     1.42596813
H      1.13747407     0.08614116     0.86131364
H      2.02910602     0.61588855    -1.50994188
9
malonaldehyde train delta=-0.789
O      0.57509523     1.20432348     0.73313156
C     -0.59318524     0.70317957     0.54016170
C     -1.06032899     0.45832530    -0.73462935
C     -0.39822591     0.89420171    -1.96299302
O      0.56716869     1.65395186    -1.96180240
H      0.90793213     1.65074421    -0.15574061
H     -1.10396277     0.34852040     1.40290813
H     -2.04066387     0.05910409    -0.85986168
H     -0.77055233     0.55087372    -2.87739717
9
malonaldehyde train delta=-0.743
O     -1.58861176     0.87971074     0.01810993
C     -0.46769432     1.50536160     0.45450160
C      0.70858583     1.59449683    -0.20996011
C      0.91987177     1.01160229    -1.50886116
O      0.04368275     0.25817003    -2.03523448
H     -1.31898757     0.46726989    -0.90029412
H     -0.65960784     1.99063224     1.39636640
H      1.47036759     2.14763764     0.15869024
H      1.74323567     1.37328952    -2.03052932
9
malonaldehyde train delta=-0.585
O     -0.28741173     1.74945809     0.73805632
C      0.48746045     2.06350790    -0.30754620
C      0.57179190     1.29280857    -1.41643397
C     -0.19499536     0.12703482    -1.58827340
O     -1.02966970    -0.26303518    -0.77593865
H     -0.78822628     0.85542820     0.42315443
H      1.03151917     2.96393328    -0.23675313
H      1.12549748     1.72686688    -2.32985849
H     -0.12153064    -0.41869296    -2.51929443
9
malonaldehyde train delta=-0.792
O     -0.92940530     0.13552610     0.32697459
C     -0.73060773     1.46929504     0.39074046
C      0.16244342     2.10384286    -0.44724233
C      0.52215018     1.43340382    -1.67530152
O      0.34288388     0.27864458    -1.99066491
H     -0.31799585    -0.22112936    -0.39204143
H     -1.17924999     1.97276383     1.41245025
H      0.64297509     3.00809952    -0.16883797
H      1.21363664     2.03195935    -2.35688595
9
malonaldehyde train delta=-1.265
O     -0.62112782    -0.42010794    -0.09922142
C      0.56482453    -0.10343709    -0.60211938
C      0.84283826     1.17148500    -1.06876409
C     -0.01563831     2.34149332    -1.07822674
O     -1.14484877     2.23815865    -0.64543371
H     -1.40970227     0.10091679    -0.14487643
H      1.20509315    -0.98517937    -0.48231925
H      1.84734437     1.29821066    -1.42308100
H      0.37117857     3.23609054    -1.75264394
9
malonaldehyde train delta=-0.740
O     -1.60783124     1.49299956    -1.00059051
C     -1.06577158     1.14431707     0.17670533
C      0.21679312     0.81029723     0.35168462
C      1.14022538     0.73122468    -0.75929417
O      0.78836629     0.84021789    -1.88573898
H     -0.92050934     1.20148418    -1.69122342
H     -1.66464126     1.49860200     0.99775239
H      0.58231866     0.58198079     1.34450509
H      2.22092909     0.66265548    -0.37372514
9
malonaldehyde train delta=-1.104
O     -0.66983827     2.47791845    -1.27284224
C     -0.17388501     1.38442401    -1.84932566
C      0.19612698     0.19452995    -1.36171646
C      0.32377787     0.02820569     0.09539685
O     -0.18496504     0.77381392     0.88054633
H     -0.78238895     2.23494898    -0.39018803
H     -0.17986734     1.62091874    -2.87575450
H      0.27337213    -0.70583407    -1.98654447
H      0.84238397    -0.89528846     0.23044842
9
malonaldehyde train delta=-0.688
O     -0.50683357     1.54521637     0.76238743
C     -0.56893997     2.14100572    -0.45858471
C     -0.16097334     1.52500520    -1.55601711
C      0.19236634     0.10492368    -1.46297636
O      0.34909368    -0.49625852    -0.42091555
H     -0.20936893     0.64128638     0.63346995
H     -0.78052268     3.17894582    -0.32710239
H     -0.00059230     2.01446289    -2.55617759
H      0.45008433    -0.28134249    -2.48531263
9
malonaldehyde train delta=-1.084
O     -0.32532697    -0.35245741    -1.57868923
C     -0.39908803     0.94316869    -1.85545660
C     -0.24034546     2.05596186    -1.15345058
C      0.13094870     1.92721513     0.27719106
O      0.15229573     0.84982022     0.84666490
H     -0.12136310    -0.49642228    -0.65802077
H     -0.46925573     1.04754078    -2.92550092
H     -0.27437610     3.04265542    -1.48876541
H      0.29054578     2.92968371     0.91391232
9
malonaldehyde train delta=-0.828
O     -0.65993245     2.48587719    -0.39450893
C     -0.73766169     1.44489694     0.40452267
C     -0.31557869     0.20778746     0.04035693
C      0.33352771    -0.05581454    -1.22744680
O      0.67439849     0.77879772    -2.05157066
H      0.00814763     2.17087021    -1.07004543
H     -1.09291073     1.81599173     1.35878003
H     -0.46493750    -0.60715260     0.67561317
H      0.39779855    -1.13897427    -1.45930189
9
malonaldehyde train delta=-0.719
O      0.01791617     0.13699444     0.65935532
C     -1.06672147     0.49607268    -0.08825634
C     -1.11018815     1.19670996    -1.24569892
C      0.06841458     1.78783545    -1.71317458
O      1.16357395     1.59155036    -1.19554122
H      0.77582927     0.67724897     0.23535957
H     -1.91300621    -0.07861937     0.29265779
H     -2.03166985     1.34418647    -1.78828900
H     -0.00394918     2.34430269    -2.62595085
9
malonaldehyde train delta=-0.719
O     -0.62739939    -0.25873474    -1.27105626
C     -0.37556565     0.80433479    -1.93469464
C      0.08689941     1.95584558    -1.29593453
C      0.19736330     1.93503578     0.12463627
O      0.15118430     0.92718854     0.83591805
H     -0.60046209     0.00641996    -0.34936668
H     -0.43287527     0.68136663    -3.00071772
H      0.14902600     2.86159549    -1.77192756
H      0.17568774     3.00314752     0.70232494
9
malonaldehyde train delta=-0.690
O     -1.04592269     2.05187047    -1.31847364
C      0.10862711     1.53555839    -1.86575519
C      0.73118310     0.50754623    -1.26378222
C      0.34562250     0.19199913     0.12875355
O     -0.54725883     0.68276017     0.81028618
H     -1.03521285     1.67350828    -0.42725407
H      0.26807491     1.90312347    -2.85476902
H      1.53119243    -0.02473140    -1.79688773
H      1.09474286    -0.54919793     0.48504563
9
malonaldehyde train delta=-0.638
O      0.32884220    -0.43910273    -0.64718773
C      0.56845145     0.39340394    -1.67020210
C      0.11335263     1.70045112    -1.55802568
C     -0.59477170     2.18230178    -0.34611087
O     -1.01172470     1.46681051     0.61146284
H     -0.20053956     0.13448747     0.02331482
H      1.08463015     0.06327950    -2.58934375
H      0.19030283     2.44466876    -2.34906973
H     -0.73116259     3.27962184    -0.27068084
9
malonaldehyde train delta=-0.597
O      0.84520798     0.13580420    -0.03244357
C      0.76698048     1.39751763     0.13347495
C     -0.18023100     2.15572320    -0.44479320
C     -1.03310311     1.48301094    -1.41283492
O     -1.07229239     0.25262528    -1.61178370
H      0.05209133    -0.21399645    -0.55733015
H      1.41916039     1.80311513     0.78011687
H     -0.35914894     3.21493384    -0.36584301
H     -1.64893891     2.17342494    -1.87928794
9
malonaldehyde train delta=-0.973
O     -1.23627758     0.24991221    -1.49829414
C     -0.26253615     1.04775133    -1.92656101
C      0.56930941     1.72283852    -1.12110741
C      0.57726784     1.60198188     0.29073147
O     -0.11660296     0.72034761     0.80986989
H     -1.01182359    -0.09896540    -0.66106877
H     -0.20851334     1.19009628    -2.96806896
H      1.36071742     2.28564206    -1.61346550
H      1.45762691     2.20867950     0.68027203
9
malonaldehyde train delta=-0.625
O     -0.30528669     1.78260202     0.64910392
C     -1.25333718     1.41785088    -0.14850955
C     -1.01329125     0.74799706    -1.37437608
C      0.31799544     0.49461366    -1.74184394
O      1.35795420     0.56757187    -0.98847147
H      0.61086416     1.38597600     0.28417474
H     -2.26633617     1.68787472     0.08749994
H     -1.82195977     0.72321637    -1.99927642
H      0.54327782     0.26996388    -2.74748800
9
malonaldehyde train delta=-0.818
O     -1.11495432     0.68329289     0.50658242
C      0.12884353     1.19303409     0.51779647
C      0.93264512     1.49196318    -0.50296603
C      0.40165257     1.18697609    -1.84894728
O     -0.70885154     0.68396662    -2.07736956
H     -1.47930358     0.65979630    -0.42773575
H      0.51244447     1.21826456     1.56927492
H      1.81183580     2.10476423    -0.37412715
H      1.22774803     1.24605978    -2.68100407
9
malonaldehyde train delta=-0.588
O      1.29034344     1.59708377    -0.49101957
C      0.20770278     1.79458386     0.29425639
C     -0.99444590     1.17078057     0.05497576
C     -1.12084291     0.39672267    -1.10609231
O     -0.30351678     0.22989193    -1.99615302
H      0.88668956     0.96781186    -1.19358805
H      0.34482430     2.28193029     1.26455969
H     -1.74366975     1.19329185     0.87647936
H     -1.87991382    -0.32467329    -1.11742871
9
malonaldehyde train delta=-0.606
O     -0.12375856     0.39059781     0.68999935
C     -1.14330773     1.00968866     0.09760760
C     -1.06224215     1.58244507    -1.07207998
C      0.21741640     1.41346470    -1.85311423
O      1.21022640     0.85732489    -1.40866036
H      0.60807906     0.40933062     0.01034383
H     -2.05874658     1.12588660     0.76031941
H     -1.82497564     2.27193345    -1.44543648
H      0.19926495     1.77012077    -2.89663996
9
malonaldehyde train delta=-1.310
O      0.46005043    -0.60038620    -0.82682159
C      0.43140041     0.45456638    -1.61698783
C     -0.04346870     1.71399624    -1.50790467
C     -0.60089433     2.29293581    -0.27413983
O     -0.95214582     1.50493716     0.63558359
H      0.05491370    -0.42518108     0.01809037
H      1.14221646     0.28600147    -2.46480554
H      0.24746665     2.43678332    -2.24838147
H     -0.55884071     3.36946254    -0.10495590
9
malonaldehyde train delta=-0.699
O     -0.22558638     0.19851903     0.62855098
C     -1.18183309     0.65204544    -0.15353971
C     -1.05118335     1.45512035    -1.24928216
C      0.28316869     1.70030382    -1.68440207
O      1.28768541     1.25249998    -1.12265673
H      0.60411671     0.26713226     0.07805145
H     -2.19553570     0.53699370     0.33858567
H     -1.89379263     1.78202881    -1.82521128
H      0.30182532     2.24604981    -2.67467202
9
malonaldehyde train delta=-0.744
O     -0.71775934     2.38406264    -1.12093781
C     -1.30009141     1.22343663    -1.24943822
C     -0.72090957     0.03545973    -0.82762576
C      0.68264837     0.09818370    -0.32428106
O      1.25073341     1.07071980     0.13488476
H      0.17944207     2.33533905    -0.56613283
H     -2.28002815     1.29582343    -1.76418696
H     -1.11456155    -0.97460800    -1.09744937
H      1.34893710    -0.62875597    -0.70791973
9
malonaldehyde train delta=-0.917
O     -1.01606558     2.23488237    -0.23955090
C     -0.26849343     1.39292655     0.50767994
C      0.40691734     0.39362316     0.06713637
C      0.57653312     0.21224895    -1.36973029
O     -0.18347432     0.69790382    -2.18984790
H     -1.18381523     1.83252511    -1.08840105
H     -0.12263958     1.67692019     1.50427281
H      1.00867494    -0.27392826     0.71227396
H      1.35402092    -0.50455578    -1.73775060
9
malonaldehyde train delta=-1.004
O      1.16113736     1.43112126     0.10446494
C     -0.01706167     1.23094991     0.60143868
C     -1.03030990     0.78322726    -0.13833904
C     -1.01393185     0.72249776    -1.58939351
O     -0.03174336     0.85087989    -2.25832299
H      1.27232187     1.43383625    -0.87410509
H     -0.12492568     1.44460852     1.60723332
H     -1.96460672     0.81674224     0.26624462
H     -2.03022742     0.63882245    -2.03937987
9
malonaldehyde train delta=-0.746
O      0.85020168     0.09963989     0.04671778
C      0.75469890     1.37847387     0.14396898
C     -0.06703177     2.15406583    -0.58313640
C     -1.14385452     1.50142837    -1.37398955
O     -1.09954071     0.28262565    -1.60286070
H      0.28253827    -0.23531971    -0.69064698
H      1.56549955     1.84487992     0.64787632
H     -0.17093320     3.24823564    -0.45803883
H     -1.74591050     2.23671842    -1.86390786
9
malonaldehyde train delta=-0.866
O     -1.29002822     0.01124973    -0.21006481
C     -0.00757019    -0.05804743    -0.02876265
C      0.95859522     0.84362248    -0.42039480
C      0.56830130     1.98405693    -1.21075807
O     -0.59439411     2.30350702    -1.49737923
H     -1.44177274     0.97332928    -0.47969527
H      0.36531675    -0.85953047     0.66309877
H      1.94289511     0.67084949    -0.04613344
H      1.51861442     2.50821902    -1.63908947
9
malonaldehyde train delta=-0.756
O     -1.51899160     1.20047284    -0.00987080
C     -0.29576715     1.17288988     0.53060209
C      0.91597137     1.02615625    -0.09873406
C      0.80930974     0.90032243    -1.57843498
O     -0.26275730     0.77803313    -2.12104340
H     -1.49816394     1.23390107    -0.98916347
H     -0.22137096     1.47589070     1.54986774
H      1.86754324     0.92668211     0.39303823
H      1.70429389     1.06192845    -2.17959926
9
malonaldehyde train delta=-0.500
O     -0.31955616     1.71072899     0.74021914
C      0.43297962     2.10009824    -0.29859132
C      0.56708256     1.33857981    -1.46083485
C     -0.16907061     0.15210266    -1.57054236
O     -0.98483941    -0.29887126    -0.76341096
H     -0.82448079     0.81894526     0.36047753
H      0.92482057     3.04026613    -0.27306332
H      1.29472852     1.47167381    -2.18245388
H      0.05341570    -0.44499020    -2.42310300
9
malonaldehyde train delta=-0.923
O     -1.09890201     0.36569416     0.36992700
C     -0.41230311     1.45538174     0.49629240
C      0.31148785     2.01332634    -0.51477390
C      0.57329635     1.28316070    -1.74689451
O      0.08562146     0.26429055    -2.01997050
H     -0.92628086    -0.00613737    -0.47746006
H     -0.53318306     1.91054014     1.52904098
H      0.97878972     2.80754763    -0.14549493
H      1.47823677     1.69045827    -2.19794119
9
malonaldehyde train delta=-0.920
O     -1.44518883     1.57511715    -0.01813340
C     -0.28862984     1.38170856     0.55679056
C      0.72825150     0.73347134    -0.02720294
C      0.74321037     0.47607130    -1.54689972
O     -0.13612600     0.85904211    -2.23545039
H     -1.32640203     1.32542299    -0.90248804
H     -0.30421669     1.79428755     1.59335190
H      1.66442733     0.51353803     0.47191959
H      1.56056643    -0.10371387    -1.97818832
9
malonaldehyde train delta=-0.731
O     -1.51034809     1.67375676    -0.31550799
C     -0.53068753     1.35880550     0.50430622
C      0.67528059     0.75251450     0.07437765
C      0.90022698     0.54904646    -1.31321026
O      0.04816333     0.70371677    -2.16341786
H     -1.21651705     1.48653258    -1.26153343
H     -0.70881388     1.55351552     1.55589987
H      1.33352352     0.43886623     0.85548889
H      1.92480411     0.09491088    -1.51550338
9
malonaldehyde train delta=-1.025
O     -1.18119921     0.16485211     0.12995010
C     -0.74502875     1.39087714     0.41974101
C      0.14049202     2.07843898    -0.38117805
C      0.69109378     1.50167707    -1.63080196
O      0.50530050     0.30198995    -1.91046424
H     -0.62132302    -0.35696761    -0.43042872
H     -1.14415060     1.72740087     1.31203106
H      0.53681166     2.96251640     0.02219652
H      1.43645841     2.05701398    -2.21009775
9
malonaldehyde train delta=-1.382
O     -1.74181341     0.58630179    -0.27694654
C     -0.86043634     1.35435271     0.29668037
C      0.30843211     1.87546284    -0.16019055
C      1.10849068     1.14426309    -1.11792371
O      0.72443627     0.33827801    -1.98621236
H     -1.40766869     0.08195806    -1.03264178
H     -1.45826028     1.89126469     1.03157774
H      0.90221862     2.53969568     0.52651393
H      2.21772494     1.53113495    -1.06091663
9
malonaldehyde train delta=-1.113
O      0.18937148    -0.25461751    -1.61334595
C     -0.34406775     0.88487547    -2.00898102
C     -0.52006931     1.88164300    -1.13143782
C     -0.14857104     1.92150815     0.27497124
O      0.05780648     0.92969618     1.00805088
H      0.34494276    -0.23816216    -0.67285966
H     -0.54495243     0.99303539    -3.06986183
H     -0.83918563     2.94200578    -1.61054293
H     -0.24001030     2.86329873     0.74656534
9
malonaldehyde train delta=-0.791
O      0.55987543     0.97422841     0.72119970
C     -0.69640853     0.90903651     0.51799438
C     -1.17972208     0.97259530    -0.76689287
C     -0.40376137     1.01243976    -1.94098293
O      0.77759755     1.17029765    -1.92602788
H      0.99267595     1.32708431    -0.13347488
H     -1.25710516     0.70953235     1.42481513
H     -2.29605689     1.05720855    -0.89522360
H     -0.81408779     0.94525812    -3.01083592
9
malonaldehyde train delta=-0.531
O     -0.57786145     2.42543566    -1.13547449
C     -0.34981844     1.36766036    -1.79900320
C      0.01836664     0.10108262    -1.35350007
C      0.15148764    -0.03585957     0.01616025
O      0.13984645     0.96716010     0.74848731
H     -0.32750033     2.20075181    -0.13425924
H     -0.30113173     1.55254196    -2.87110556
H      0.16585539    -0.68000191    -2.15007546
H      0.22572060    -1.00329365     0.28937084
9
malonaldehyde train delta=-0.897
O      0.08318472     0.95811914     0.87878001
C      0.75280720     1.69304247    -0.00581303
C      0.49978908     1.69077067    -1.34007124
C     -0.56955693     0.86714880    -1.86406481
O     -1.29728079     0.10275127    -1.28854112
H     -0.48355727     0.25155629     0.43068974
H      1.63362103     2.19768581     0.51270517
H      1.18470108     2.29043981    -1.91163488
H     -0.65505072     0.88124318    -2.98034592
9
malonaldehyde train delta=-0.780
O     -0.70714993     0.46994713     0.66613251
C     -1.33832447     0.96291112    -0.37176569
C     -0.78699408     1.35193357    -1.54651677
C      0.62320146     1.34066115    -1.67653163
O      1.39552912     1.08289959    -0.73680574
H      0.20086888     0.68014555     0.45584665
H     -2.40530837     0.94995060    -0.28773250
H     -1.39977470     1.68778493    -2.32855278
H      1.03523081     1.72199047    -2.61562595
9
malonaldehyde train delta=-0.572
O     -0.55004087     0.83586239     0.76577244
C      0.56842390     1.23873184     0.28266282
C      0.93026262     1.35651947    -0.99650332
C     -0.10944081     1.08229181    -1.96718391
O     -1.22417874     0.72741107    -1.62387373
H     -1.16574503     0.42674718    -0.00935552
H      1.20742470     1.33186448     1.16161236
H      1.92717663     1.61769930    -1.29361272
H      0.21941074     1.08734364    -2.98109478
9
malonaldehyde train delta=-0.882
O      0.28329732     0.87991515     0.75427048
C      0.73631282     1.82126901    -0.10968322
C      0.29769728     1.82540991    -1.40405853
C     -0.68212651     0.85423934    -1.74846753
O     -1.19883596    -0.03853028    -1.11739670
H     -0.17752098     0.12134609     0.40158639
H      1.48647026     2.45850777     0.35068273
H      0.55243954     2.64275958    -2.01317709
H     -0.97900305     0.89990901    -2.81328966
9
malonaldehyde train delta=-0.557
O     -0.42724641     0.86642948     0.75588166
C      0.69186432     1.30610881     0.29182321
C      0.86272943     1.35750184    -1.04124287
C     -0.21193153     1.02909953    -1.95570917
O     -1.29084283     0.61275072    -1.57727370
H     -1.12321219     0.88095918    -0.01407594
H      1.30595602     1.57312009     1.09897641
H      1.60284757     1.97306709    -1.51351625
H      0.06732145     1.20073899    -2.99521481
9
malonaldehyde train delta=-1.181
O     -1.70653349     1.49914931    -0.93910605
C     -1.09240729     1.17332909     0.18131357
C      0.15965604     0.65289919     0.31244892
C      1.13783276     0.67687518    -0.74977199
O      0.97718611     0.99314442    -1.94082403
H     -1.02915849     1.60349802    -1.58991261
H     -1.69997472     1.26488322     1.08544789
H      0.41571687     0.33944653     1.28853211
H      2.15738306     0.41360826    -0.32228447
9
malonaldehyde train delta=-0.879
O     -1.77300375     1.01766410    -0.70491633
C     -0.95796346     1.33633237     0.28900527
C      0.41432694     1.46161628     0.16400718
C      1.14072603     0.83995260    -0.89117986
O      0.70172735     0.51504555    -2.00961500
H     -1.10741942     0.93567827    -1.50648838
H     -1.43360697     1.60063595     1.22059689
H      0.90750547     1.96626562     0.96547082
H      2.23139902     0.69919756    -0.60485516
9
malonaldehyde train delta=-0.834
O     -1.02724765     0.02819090    -1.41713326
C     -0.25438983     0.90473917    -2.00712226
C      0.39536396     1.81300794    -1.24126078
C      0.38342316     1.74339903     0.21442771
O     -0.00656055     0.86181645     0.94034996
H     -0.65544798    -0.15381885    -0.47734714
H     -0.26403045     0.85140554    -3.09771478
H      1.07770356     2.44997311    -1.66362903
H      0.64635664     2.66808842     0.60099070
9
malonaldehyde train delta=-0.495
O     -0.30824079     2.43379886    -0.12946859
C     -0.97580106     1.35281769     0.18303100
C     -0.75483313     0.10603731    -0.39140799
C      0.37882046    -0.01390931    -1.23184304
O      0.85106744     0.97403632    -1.78808444
H      0.29611338     2.00778054    -0.83116529
H     -1.68809543     1.48230968     1.00878961
H     -1.34722691    -0.68049469     0.15853556
H      0.77176404    -1.05408824    -1.38147013
9
malonaldehyde train delta=-0.905
O      0.65412840     0.85590219     0.76092996
C      0.66528663     1.86372462    -0.18084074
C      0.00881731     1.84625170    -1.35433834
C     -0.85163560     0.83597821    -1.80407961
O     -1.12293295    -0.07530644    -1.05929990
H      0.06542605     0.18111768     0.37492371
H      1.19005155     2.71088477     0.18122236
H      0.31494253     2.70433921    -2.01371806
H     -1.45083946     0.94481794    -2.71189745
9
malonaldehyde train delta=-0.929
O     -1.20242905     1.94915628    -0.12775021
C     -0.26459109     1.42357697     0.52442080
C      0.63435663     0.43261345     0.01085100
C      0.57427764     0.28269882    -1.44280583
O     -0.17356208     0.86823908    -2.21539031
H     -1.38611374     1.51431195    -0.94383888
H     -0.19372770     1.81132787     1.59774420
H      1.42453335    -0.08663889     0.56979730
H      1.31081152    -0.40390702    -1.90662799
9
malonaldehyde train delta=-0.716
O      1.31899829     1.03111209    -0.31295548
C      0.39012574     1.74099175     0.22309151
C     -0.91220301     1.63086950    -0.12788986
C     -1.27096538     0.77651299    -1.21431076
O     -0.43479795     0.09876853    -1.84095324
H      1.03518841     0.42893170    -1.04363228
H      0.82340617     2.32981757     0.99014387
H     -1.66993621     2.10916826     0.49927246
H     -2.31946143     0.92943436    -1.62188908
9
malonaldehyde train delta=-0.732
O     -1.03289560     2.31001439    -0.89065206
C     -1.35677337     1.01036878    -1.01026549
C     -0.59124833    -0.04295142    -0.63444801
C      0.83006893     0.23335222    -0.28640391
O      1.39350398     1.29654177    -0.54405115
H     -0.03202379     2.30322666    -0.69646555
H     -2.35435373     0.91804688    -1.33727064
H     -0.81277267    -1.09417141    -0.58933909
H      1.45747206    -0.59841064     0.03744539
9
malonaldehyde train delta=-0.928
O     -1.41811043     0.52922719     0.20472035
C     -0.46872787     1.45341177     0.48634475
C      0.55858834     1.81367289    -0.33743109
C      0.78670537     1.24743894    -1.65959915
O      0.07972968     0.28678266    -2.04150611
H     -1.15320510     0.13655508    -0.62543163
H     -0.53579777     1.93802288     1.51591795
H      1.36263941     2.49405299     0.02789671
H      1.65765448     1.72896701    -2.23004132
9
malonaldehyde train delta=-0.749
O     -1.26135687     0.17730144    -0.00605989
C     -0.82347351     1.38620901     0.31123030
C      0.11331619     2.06736678    -0.37184440
C      0.86362613     1.40706138    -1.43054967
O      0.51828063     0.36880863    -1.87206795
H     -0.61568643    -0.23020980    -0.66756241
H     -1.31848453     1.81661851     1.31149647
H      0.71606580     2.83325695     0.18680594
H      1.72629713     2.00172584    -1.78993571
9
malonaldehyde train delta=-0.806
O     -0.21152634     0.12053648     0.57976388
C     -1.21217667     0.62105864    -0.08191156
C     -1.03046688     1.41225537    -1.18608156
C      0.27269447     1.69291324    -1.68774730
O      1.30250217     1.34998004    -1.20758793
H      0.53932366     0.76906451     0.34580263
H     -2.23801191     0.34724528     0.27738940
H     -1.90072091     1.88641105    -1.63105236
H      0.18871509     2.46317578    -2.50958466
9
malonaldehyde train delta=-0.611
O     -1.63462897     1.33397274    -0.26512057
C     -0.54373573     1.48391497     0.40425346
C      0.72648768     1.13241757     0.02072368
C      0.97649040     0.68878312    -1.31408349
O      0.07174363     0.49864090    -2.08480000
H     -1.27145253     0.87169736    -1.15371827
H     -0.69393743     1.89247458     1.47172341
H      1.42579387     1.15192909     0.78733227
H      2.08385118     0.59673224    -1.66848403
9
malonaldehyde train delta=-0.976
O      0.01997393     0.06419932     0.55536277
C     -1.07801782     0.50605837    -0.04104994
C     -1.17220376     1.27391263    -1.19076665
C      0.10774310     1.83901188    -1.65609624
O      1.19948151     1.54885157    -1.24981298
H      0.81745586     0.57109516     0.37812295
H     -1.86918958    -0.18367636     0.36766670
H     -2.17623818     1.54723729    -1.46478138
H     -0.11219655     2.54631598    -2.51866324
9
malonaldehyde train delta=-0.692
O     -1.31538058     2.02105662    -0.57288429
C     -0.95802148     1.12730769     0.27927236
C      0.10970500     0.25248996     0.10296822
C      0.89161063     0.30315193    -1.08783548
O      0.71134505     1.17028829    -1.92012805
H     -0.71091617     2.06824426    -1.43941565
H     -1.63267596     1.08769611     1.25110094
H      0.44314689    -0.35546105     0.89637693
H      1.55100144    -0.47090667    -1.18203912
9
malonaldehyde train delta=-0.703
O      0.32938490    -0.45128681    -0.85920780
C      0.43565460     0.59289421    -1.65571774
C     -0.11893287     1.83298920    -1.52921978
C     -0.69214042     2.13496567    -0.22450318
O     -0.59660177     1.27974540     0.68753331
H     -0.17879020    -0.22526866    -0.01567793
H      0.91260376     0.28829053    -2.62638723
H     -0.33286929     2.53674558    -2.30586628
H     -1.15968137     3.08173773    -0.04886283
9
malonaldehyde train delta=-0.949
O     -0.88065640     2.38759571    -0.35757953
C     -0.41049190     1.43475181     0.48814030
C      0.10298921     0.23680435     0.12554021
C      0.41326108     0.00578464    -1.26316511
O      0.19831859     0.80053688    -2.18982096
H     -1.00741877     2.04159199    -1.28880315
H     -0.26022158     1.78255627     1.51384392
H      0.40303119    -0.44887756     0.79519033
H      0.97142881    -0.91321322    -1.49756263
9
malonaldehyde train delta=-0.879
O     -0.96533799     2.36343206    -1.10992158
C     -1.37523606     1.14650992    -0.98096380
C     -0.61108059     0.06208721    -0.64809975
C      0.80252354     0.07629370    -0.41817718
O      1.39178101     1.17774477    -0.18148117
H      0.05099463     2.28281833    -0.97090426
H     -2.38502490     0.96413328    -1.31393601
H     -1.20775424    -0.84889640    -0.70985959
H      1.53129259    -0.82666281    -0.50160129
9
malonaldehyde train delta=-0.588
O     -1.69920077     0.86433102    -0.71626918
C     -0.87392510     1.39119836     0.23299311
C      0.48625655     1.55234874     0.19456122
C      1.11430127     1.00076422    -0.96916962
O      0.51785695     0.43201333    -1.89544959
H     -1.00701240     0.57096402    -1.40552817
H     -1.45881215     1.79937927     1.03970892
H      1.07148751     1.63871175     1.12255007
H      2.21417590     1.29433389    -1.05449426
9
malonaldehyde train delta=-0.767
O     -1.51597968     1.67614690    -1.09053219
C     -1.29567785     0.51532643    -0.42833766
C     -0.05223582     0.07514789    -0.14120349
C      1.08573879     0.86558729    -0.39403111
O      1.17549465     1.73266098    -1.18960485
H     -0.56563174     1.93625749    -1.13569479
H     -2.18526761    -0.00272134    -0.24066672
H      0.05028579    -0.75943924     0.56735356
H      1.93588823     0.39580458     0.11032374
9
malonaldehyde train delta=-0.993
O      0.32222293     0.41346935     0.75511924
C     -0.72512317     1.15693441     0.46289027
C     -1.03913370     1.67141875    -0.74746238
C     -0.25967897     1.27713704    -1.96405415
O      0.77779857     0.72510710    -1.97549506
H      0.92209100     0.54363603    -0.01319043
H     -1.29769743     1.55186898     1.29969943
H     -1.74528885     2.44682295    -0.87650193
H     -0.73422551     1.62163054    -2.87854991
9
malonaldehyde train delta=-0.578
O     -1.29741262     0.28952700    -0.03960580
C     -1.19576004     1.59954629    -0.23975847
C     -0.16027381     2.13009724    -0.93303910
C      1.01599064     1.30762657    -1.20307768
O      1.00613821     0.07954616    -1.04586679
H     -0.41681137    -0.09531413    -0.35758534
H     -1.94740471     2.27598227     0.21525052
H     -0.34597119     3.07331562    -1.30498466
H      1.93610862     1.87063906    -1.57359874
9
malonaldehyde train delta=-0.695
O     -1.31915178     0.60722434    -1.49276871
C     -0.19558391     1.14382183    -1.96560520
C      0.81800090     1.48305222    -1.11453319
C      0.67262623     1.18619961     0.23610126
O     -0.35055092     0.79706387     0.85823311
H     -1.26945348     0.55688300    -0.51799081
H     -0.22245709     1.46222702    -2.97677114
H      1.60877372     2.04250468    -1.49652054
H      1.64872316     1.31136953     0.62430815
9
malonaldehyde train delta=-0.497
O     -0.40024306     1.65652744     0.74301199
C      0.33111844     2.14675473    -0.27526575
C      0.46762732     1.45494235    -1.46415606
C     -0.14917136     0.17159749    -1.61931037
O     -0.76195073    -0.43237564    -0.72229996
H     -0.73601003     0.67608140     0.41054136
H      0.96815371     3.04944590    -0.02657029
H      1.16570155     1.92837804    -2.22606073
H     -0.07750329    -0.26711948    -2.59488084
9
malonaldehyde train delta=-1.238
O      0.10415067    -0.62157754    -0.43904985
C      0.64523409     0.25402403    -1.27156942
C      0.46149040     1.56711465    -1.44789262
C     -0.56931860     2.33904238    -0.67084310
O     -1.18246837     1.79991767     0.23441011
H     -0.58308348    -0.30756308     0.14540249
H      1.33583488    -0.31274493    -1.98498744
H      1.21387252     2.08334772    -1.95458867
H     -0.71901801     3.45777297    -0.91471326
9
malonaldehyde train delta=-0.631
O      0.74000544     0.75464846     0.47393434
C     -0.48461502     1.12987591     0.55928131
C     -1.18648316     1.42226202    -0.57135855
C     -0.53940970     1.26866826    -1.89359325
O      0.52214954     0.67703931    -1.96641271
H      0.98001747     0.74933109    -0.44983995
H     -0.77615198     1.07401451     1.59505455
H     -2.26381972     1.60196723    -0.61430208
H     -1.14023465     1.48794480    -2.78679204
9
malonaldehyde train delta=-1.430
O      0.74667871    -0.30441317    -1.33519517
C      0.12034532     0.69102535    -1.85335674
C     -0.56130401     1.74039826    -1.32420925
C     -0.71180543     2.04207368     0.06545030
O     -0.37191433     1.21387965     0.93251025
H      0.53713970    -0.52622416    -0.42679815
H      0.31678265     0.61495403    -2.94398070
H     -1.22612939     2.34095109    -1.96995047
H     -1.30015273     2.93487536     0.43676862
9
malonaldehyde train delta=-0.751
O     -1.37641277     1.45510036    -1.55218275
C     -0.12679334     1.32042043    -1.99130558
C      0.90148662     0.96852468    -1.10917911
C      0.66288604     0.73115150     0.27530985
O     -0.42204746     0.61492463     0.89567480
H     -1.35643726     1.15198424    -0.54741074
H     -0.07492383     1.55195724    -3.00739861
H      1.87041077     0.94787543    -1.51970019
H      1.67193216     0.57708209     0.73769619
9
malonaldehyde train delta=-0.695
O     -1.30263179     2.09863245    -0.43833022
C     -0.88737843     1.08852273     0.37600270
C      0.16893651     0.27812884     0.14247759
C      0.85146851     0.35749730    -1.14040254
O      0.59890548     1.06723889    -2.13142684
H     -0.61939694     2.03866973    -1.27629512
H     -1.46270645     1.01079562     1.28841982
H      0.50936411    -0.42061542     0.95751312
H      1.71468617    -0.41001041    -1.26906129
9
malonaldehyde train delta=-1.060
O     -0.20000204     0.32381842     0.75319693
C     -1.20947959     0.86892810     0.09440958
C     -1.05167698     1.41880331    -1.17353928
C      0.21872896     1.53408103    -1.79965515
O      1.34109568     1.07250314    -1.43661954
H      0.60814120     0.70729201     0.40881206
H     -2.21746345     0.73095715     0.51546884
H     -1.86075845     1.96989657    -1.69019700
H      0.17117110     2.04047960    -2.78770111
9
malonaldehyde train delta=-0.779
O     -0.12504246     1.64165975     0.73202346
C      0.60488398     1.95782703    -0.29393761
C      0.55430962     1.29963776    -1.46347734
C     -0.34483569     0.20075132    -1.63646817
O     -1.14710004    -0.10617247    -0.75749012
H     -0.77660337     0.92298279     0.61646527
H      1.10166539     2.84141329    -0.11807380
H      1.16716324     1.68262781    -2.32601044
H     -0.33894517    -0.40827108    -2.59850561
9
malonaldehyde train delta=-0.520
O     -0.43907314     2.46438816    -0.33586809
C     -0.79472110     1.39267775     0.32070652
C     -0.41552939     0.10522682    -0.02907246
C      0.37181106    -0.01606779    -1.17957655
O      0.56528922     0.90806385    -2.00824305
H     -0.02598090     2.04214933    -1.16071947
H     -1.60141991     1.61675845     1.00908593
H     -0.81479383    -0.82317736     0.57209868
H      0.92404973    -0.95193336    -1.28668060
9
malonaldehyde train delta=-0.887
O     -0.75997855     0.78828730     0.80237222
C      0.47090802     1.15182504     0.48295300
C      0.91271590     1.32261894    -0.81393520
C      0.07999569     1.16944848    -1.99187842
O     -1.08867442     0.76761810    -1.96299250
H     -1.21393687     0.71363249    -0.08292789
H      1.15770495     1.21393311     1.35420499
H      1.89884198     1.71213829    -0.97532312
H      0.59923795     1.32806081    -2.90840554
9
malonaldehyde train delta=-0.967
O     -0.90578449     2.27908322    -1.33771029
C     -0.02949891     1.39996380    -1.90876071
C      0.63448543     0.49380062    -1.17709162
C      0.37544440     0.13127238     0.15628354
O     -0.54328443     0.60054330     0.77807770
H     -0.95636690     1.98212040    -0.45667366
H      0.27123643     1.68198699    -2.95772530
H      1.44410456     0.05980037    -1.66658071
H      1.25732346    -0.51250636     0.45300941
9
malonaldehyde train delta=-0.597
O     -0.08306686     0.08293266     0.52159357
C     -1.20244224     0.53861245    -0.06443360
C     -1.09018794     1.43558892    -1.09682628
C      0.20817325     1.81858125    -1.64825213
O      1.25788254     1.38920757    -1.23502732
H      0.66333700     0.33756684    -0.14334221
H     -2.14522481     0.18622343     0.36935464
H     -2.02917848     1.59499121    -1.65914004
H      0.10932387     2.53179069    -2.44144915
9
malonaldehyde train delta=-0.470
O     -1.35839811     1.96162430    -0.60849081
C     -0.88771859     1.15434581     0.31915780
C      0.15171711     0.22943651     0.17247693
C      0.85258560     0.34342845    -1.04799315
O      0.68097510     1.20110752    -1.99558499
H     -0.62388275     2.00332422    -1.48533010
H     -1.38723976     1.21931629     1.30073833
H      0.30786701    -0.61423552     0.86299575
H      1.65074047    -0.33574451    -1.18030086
9
malonaldehyde train delta=-0.643
O      0.61872836     1.07645594     0.65067979
C     -0.65995004     0.89856119     0.40108422
C     -1.30511566     0.81035097    -0.77406625
C     -0.41832203     1.07330638    -1.87013172
O      0.77541759     1.18502350    -1.80962201
H      1.15925926     0.95215207    -0.20680142
H     -1.12787432     0.80605825     1.37790766
H     -2.31967550     0.53723098    -0.91750907
H     -0.76625044     1.23688409    -2.92265403
9
malonaldehyde train delta=-0.960
O     -1.26041263     2.13145021    -0.51041290
C     -0.93888780     1.07179930     0.25362677
C      0.00582157     0.20215500     0.13279967
C      0.89957849     0.33177247    -1.07595342
O      0.71704759     1.11610143    -1.98627063
H     -0.65329544     2.27067864    -1.25927768
H     -1.65231533     1.13359770     0.99411894
H      0.14149413    -0.73100526     0.73032672
H      1.73840097    -0.31239321    -1.09573875
9
malonaldehyde train delta=-0.845
O     -1.26616502     0.34316235     0.14594802
C     -1.24173782     1.59401304    -0.36751185
C     -0.19106924     2.09940760    -1.03187478
C      0.92185224     1.23622858    -1.31041875
O      1.13580000     0.14516667    -0.89534945
H     -0.39908082    -0.04227911     0.02764754
H     -2.21165104     2.02912011    -0.52741205
H     -0.31803803     2.84421356    -1.80840267
H      1.63834536     1.70472057    -2.09217274
9
malonaldehyde train delta=-0.709
O     -0.66893118     2.35623966    -1.19678387
C     -0.19845773     1.40602931    -1.92633501
C      0.34842572     0.30317451    -1.35257742
C      0.17382759     0.01219613     0.04347526
O     -0.20821448     0.80509224     0.89667543
H     -0.46388900     2.06995683    -0.24545153
H     -0.08852999     1.70663411    -2.95818251
H      0.89235303    -0.39829848    -1.92595112
H      0.44287572    -1.03813437     0.07284348
9
malonaldehyde train delta=-0.838
O     -0.38835513     0.21594615     0.64909097
C     -1.27876258     0.72388675    -0.15899211
C     -0.97397709     1.44980559    -1.28943397
C      0.40061322     1.62598021    -1.73935716
O      1.37155785     1.21517445    -1.07469871
H      0.51927703     0.47538833     0.35981247
H     -2.26018893     0.49827242     0.12411611
H     -1.76240903     1.86886327    -1.88416102
H      0.42505562     2.39683088    -2.57267261
9
malonaldehyde train delta=-0.921
O     -1.37574572     0.71519693     0.24087655
C     -0.18549326     1.21158639     0.61361453
C      0.80200553     1.36135735    -0.24767266
C      0.65037150     1.15901323    -1.67262861
O     -0.29657592     0.76770584    -2.25650502
H     -1.28661624     0.58805164    -0.68828179
H     -0.01250224     1.37933611     1.71964337
H      1.75024565     1.81019795     0.07139549
H      1.58071799     1.29025856    -2.23711886
9
malonaldehyde train delta=-0.643
O     -1.27244843     1.97105743    -0.92223965
C     -1.33343657     0.69197665    -0.83833387
C     -0.25970373    -0.08086886    -0.64009347
C      1.01553961     0.52415721    -0.36261412
O      1.20432064     1.71112736    -0.59060705
H     -0.30921680     2.19452638    -0.96525874
H     -2.36837340     0.20344147    -0.84966535
H     -0.42973583    -1.17289348    -0.57515866
H      1.76835924    -0.13914333    -0.02547194
9
malonaldehyde train delta=-0.789
O     -0.68753117     1.48523970     0.71337622
C     -1.34421822     1.35369420    -0.44436835
C     -0.76057064     1.06457401    -1.57823999
C      0.64824018     0.63397069    -1.67848161
O      1.33181592     0.55896587    -0.69810639
H      0.20171567     1.07582854     0.57352022
H     -2.33800453     1.53158046    -0.17626572
H     -1.33017870     1.30588763    -2.56257935
H      1.14013168     0.32277629    -2.62211053
9
malonaldehyde train delta=-0.938
O     -0.05593668     0.18127317     0.63453917
C     -1.13053486     0.51274665    -0.01825070
C     -1.14047377     1.26151775    -1.21533677
C      0.13467026     1.67237346    -1.68892186
O      1.27518786     1.55552637    -1.27839048
H      0.62859704     0.82868493     0.37197326
H     -2.02477016     0.05558647     0.42981758
H     -2.09807995     1.45728295    -1.74692673
H      0.06313912     2.23173104    -2.69415349
9
malonaldehyde train delta=-0.867
O     -0.25817979     1.77052656     0.72395033
C      0.52231134     2.00425930    -0.31212714
C      0.58673515     1.31004405    -1.44011209
C     -0.30533033     0.16603097    -1.61225774
O     -1.03959640    -0.26579183    -0.76554773
H     -0.67610677     0.89338998     0.62220365
H      1.27753899     2.81216294    -0.06317834
H      1.38763036     1.62955874    -2.11727517
H     -0.32821902    -0.31669945    -2.60458576
9
malonaldehyde train delta=-0.858
O     -0.68354058     2.45926501    -0.40013797
C     -0.59545149     1.44376263     0.41136092
C     -0.16819882     0.17083240     0.09648471
C      0.43201911    -0.01744487    -1.18213843
O      0.37942117     0.79857563    -2.12589014
H     -0.57984468     2.14600767    -1.32357040
H     -0.69525137     1.75951293     1.40028753
H     -0.24714667    -0.58465638     0.76625915
H      0.82067690    -0.99859491    -1.37429788
9
malonaldehyde train delta=-0.952
O     -0.49829651     0.27870996     0.70060326
C     -1.28451096     0.73466384    -0.23538823
C     -0.94347311     1.47907413    -1.32961993
C      0.46831470     1.59873687    -1.67815445
O      1.41278632     1.17536625    -1.06132845
H      0.45195929     0.32900099     0.40681362
H     -2.37202426     0.57036006     0.01949214
H     -1.66224700     1.76618181    -2.05909060
H      0.48373896     2.05059027    -2.70779617
9
malonaldehyde train delta=-1.109
O     -0.60251444     2.57595967    -0.19071620
C     -0.80512594     1.39969637     0.37956104
C     -0.45069292     0.15920756    -0.12925489
C      0.31490287    -0.07951776    -1.32544697
O      0.83667086     0.77735950    -2.00987703
H     -0.14496235     2.37035867    -1.04928422
H     -1.18229641     1.55730825     1.42466175
H     -0.82199400    -0.62374083     0.42073522
H      0.17066015    -1.10849306    -1.71452554
9
malonaldehyde train delta=-0.488
O     -1.49013093     1.40268818    -1.04524015
C     -1.02278262     1.19053956     0.18733403
C      0.27338340     0.98702862     0.43071386
C      1.07953363     0.79667246    -0.77065038
O      0.64085296     0.74414749    -1.88421548
H     -0.75337618     1.26597859    -1.72157959
H     -1.87376614     0.94600011     0.82269764
H      0.79793577     0.91905995     1.37001296
H      2.07563920     0.32930014    -0.44094606
9
malonaldehyde train delta=-0.963
O     -0.44425274     2.57200440    -1.17621492
C     -0.72802372     1.36288739    -1.72570911
C     -0.22240299     0.13873065    -1.41564357
C      0.35919475    -0.07532435     0.00031325
O      0.33109288     0.82207848     0.81340012
H      0.12013961     2.39551867    -0.35796894
H     -1.14169915     1.55803538    -2.75870323
H     -0.19185623    -0.71412939    -2.12692341
H      0.70840412    -1.10209815     0.02157188
9
malonaldehyde train delta=-0.661
O     -0.49060216     1.55815580     0.77616319
C     -0.34275922     2.21607497    -0.30295177
C     -0.00414163     1.56392250    -1.50577035
C      0.23010722     0.15658779    -1.56617419
O     -0.01180712    -0.60255056    -0.60148017
H     -0.39889647     0.52030209     0.63267065
H     -0.52844773     3.26667079    -0.14914881
H      0.08812290     2.24277287    -2.39554008
H      0.74623629    -0.15603972    -2.45121443
9
malonaldehyde train delta=-0.832
O     -0.14650615     0.33095243     0.73304130
C     -1.07235811     1.09134783     0.15395661
C     -1.01108651     1.60463985    -1.04943064
C      0.16366790     1.43011704    -1.89079229
O      1.18568690     0.84514132    -1.48559449
H      0.55327558     0.17685715     0.07043849
H     -1.94393036     1.24663875     0.84940922
H     -1.86500164     1.99366804    -1.55027130
H      0.11755867     1.85306573    -2.89255192
9
malonaldehyde train delta=-0.817
O      0.04230271     0.33324507     0.70057294
C     -0.94153057     1.11630904     0.32886333
C     -1.05067614     1.67363067    -0.94392888
C      0.02673962     1.47145025    -1.90327658
O      1.01050232     0.69738309    -1.68883616
H      0.75556407     0.44759435     0.05830342
H     -1.69095036     1.32614957     1.11478981
H     -1.88624968     2.25062630    -1.26953589
H      0.00166749     1.96158944    -2.89106584
9
malonaldehyde train delta=-0.781
O      0.64530521    -0.33998170    -1.11480966
C      0.20422436     0.64104423    -1.80236849
C     -0.40387520     1.77562601    -1.44089063
C     -0.74634518     2.04477850    -0.03910384
O     -0.41448745     1.24671149     0.84669795
H      0.22081353    -0.14969558    -0.16554066
H      0.36599155     0.54466126    -2.85916478
H     -0.91632704     2.37983425    -2.24334287
H     -1.51422680     2.82617259     0.25471146
9
malonaldehyde train delta=-0.974
O     -0.84764659     2.39088692    -1.34169442
C     -0.06895577     1.38879915    -1.84487762
C      0.64684042     0.42317694    -1.22645402
C      0.40588866     0.15821401     0.14937518
O     -0.55687408     0.56124634     0.78233465
H     -0.97891006     2.22773304    -0.30334455
H     -0.10876227     1.46842431    -2.95605906
H      1.19504187    -0.30534883    -1.84304931
H      1.15849404    -0.68231154     0.38871196
9
malonaldehyde train delta=-0.734
O     -0.56933320     2.42855532    -1.01633225
C     -1.03422394     1.28552520    -1.54959924
C     -0.52344504     0.09511972    -1.28675809
C      0.45263091     0.05033043    -0.13819814
O      0.91228603     0.97741858     0.46646122
H      0.15239538     2.22279792    -0.40691774
H     -1.88556364     1.47243209    -2.18903975
H     -0.39734261    -0.81078290    -1.83125107
H      0.51167598    -0.97012940     0.17883466
9
malonaldehyde train delta=-0.669
O     -1.33224467     1.99937729    -0.46068606
C     -0.78367645     1.15015868     0.36880098
C      0.23495483     0.33814027     0.10106965
C      0.82886359     0.31714308    -1.19402212
O      0.52575010     1.10188096    -2.02923217
H     -0.82570860     1.88607960    -1.35394160
H     -1.32928721     1.13317642     1.38528745
H      0.50223796    -0.34020946     0.97258068
H      1.67525642    -0.39289783    -1.35120543
9
malonaldehyde train delta=-1.136
O      0.58460802     1.19935823     0.80464860
C     -0.57216153     0.70821045     0.49720548
C     -1.16502023     0.59324802    -0.76271601
C     -0.41952778     0.91297219    -1.93458000
O      0.63298902     1.55215576    -2.01692475
H      1.12226940     1.34796549     0.01680751
H     -1.13371295     0.41441006     1.39350656
H     -2.07855391     0.03203113    -0.85415595
H     -0.86284962     0.65303696    -2.83414934
9
malonaldehyde train delta=-0.876
O     -0.72249028    -0.34648270    -1.37078720
C     -0.39510286     0.85123111    -1.82699958
C      0.18892205     1.91969214    -1.27194210
C      0.39194478     1.93041573     0.13127147
O     -0.01751790     1.04300222     0.83607523
H     -0.65300049    -0.35199411    -0.32569911
H     -0.56253053     0.76125208    -2.92697207
H      0.39306722     2.81927806    -1.85916877
H      1.01084440     2.80382778     0.62087845
9
malonaldehyde train delta=-0.895
O     -0.25762215     2.28193659     0.22191897
C     -1.17359156     1.38841308    -0.02473967
C     -0.91211727     0.25521677    -0.73698687
C      0.26386457     0.06306280    -1.47903760
O      1.23047643     0.86350124    -1.41422359
H      0.56012273     2.05576749    -0.18800447
H     -2.09501850     1.69709958     0.40646774
H     -1.79667717    -0.33604268    -0.89507572
H      0.14493516    -0.61793771    -2.31551449
9
malonaldehyde train delta=-0.513
O     -0.12418472     1.88618268     0.57255201
C     -1.16179398     1.50765548    -0.13157339
C     -1.07982589     0.60728101    -1.09848148
C      0.20443889     0.25471829    -1.69777582
O      1.25667068     0.73731675    -1.20309027
H      0.75403027     1.62421541     0.01328466
H     -2.09001393     1.83250059     0.27234369
H     -1.94548479     0.08825271    -1.42907320
H      0.13874804    -0.34991743    -2.61132278
9
malonaldehyde train delta=-0.977
O     -1.32177937     0.08137873    -0.24345059
C     -0.06187444    -0.07494895     0.08542629
C      0.93862531     0.80199200    -0.31736917
C      0.58381961     1.90064243    -1.26166024
O     -0.52482531     2.36857249    -1.56338162
H     -1.27344332     0.78799720    -0.82983472
H      0.28308929    -0.94299167     0.63070907
H      1.92237612     0.64552305    -0.01010607
H      1.54900387     2.35543499    -1.70195194
9
malonaldehyde train delta=-0.676
O      0.74853235     0.16984040     0.29567240
C      0.81688810     1.43046041     0.00492086
C      0.02701204     2.09918755    -0.84704273
C     -1.03194631     1.46347459    -1.56287780
O     -1.22624485     0.24348969    -1.34440706
H      0.08126252    -0.17600340    -0.37264657
H      1.64329361     2.03462797     0.34439184
H      0.10183526     3.19766718    -0.94516159
H     -1.45755214     2.04423120    -2.39645745
9
malonaldehyde train delta=-0.694
O     -0.56228247     2.38634584    -1.13450074
C     -0.35620940     1.41416610    -1.92433158
C     -0.14601674     0.15301590    -1.37928732
C      0.16823302     0.01668389    -0.00316583
O      0.26201191     0.90226961     0.88792387
H     -0.42776235     2.05657968    -0.17720895
H     -0.61073521     1.50570355    -2.93955039
H      0.11097989    -0.64635330    -2.06534710
H      0.33813767    -0.98342341     0.10452289
9
malonaldehyde train delta=-0.622
O     -0.98962795     0.32086730     0.36442739
C     -0.40286920     1.56249984     0.49548853
C      0.33568774     2.03639668    -0.50066781
C      0.42275622     1.34485398    -1.73565334
O      0.11874258     0.13662956    -1.98195734
H     -0.61021187    -0.12078120    -0.50421298
H     -0.74279360     2.00485226     1.38363174
H      0.84462380     2.91999136    -0.41530664
H      0.64091102     2.05500792    -2.58795570
9
malonaldehyde train delta=-0.904
O      1.02928839     0.21533942     0.10777121
C      0.65085200     1.48213550     0.26620551
C     -0.35852994     2.07514454    -0.39791759
C     -1.15833565     1.35743741    -1.41924574
O     -0.91271788     0.26849047    -1.91092469
H      0.45059497    -0.14836414    -0.63461113
H      1.21414074     2.09763804     1.01314433
H     -0.63216786     3.06768408    -0.24950813
H     -2.04536154     1.89723382    -1.68650875
9
malonaldehyde train delta=-0.962
O     -0.75233352     2.50341271    -0.38227346
C     -0.57015623     1.48272061     0.46087554
C     -0.27364538     0.21126402     0.05012390
C      0.31172462    -0.10068479    -1.26450006
O      0.59609777     0.75010925    -2.09753963
H     -0.22570645     2.30347349    -1.21453588
H     -0.96368601     1.84811541     1.42181918
H     -0.12253990    -0.56690974     0.84230073
H      0.63343163    -1.13272126    -1.36721088
9
malonaldehyde train delta=-0.864
O      0.88770011     0.82033698     0.53144597
C     -0.35587441     1.20174693     0.60458874
C     -1.14654156     1.32683535    -0.46724641
C     -0.73272274     1.07678898    -1.84024213
O      0.39954701     0.79408930    -2.21153827
H      1.07524757     0.63555873    -0.45714964
H     -0.67930321     1.31012223     1.61104648
H     -2.14996339     1.44441683    -0.27168325
H     -1.55341835     1.20025176    -2.56793156
9
malonaldehyde train delta=-0.783
O     -0.68806774    -0.29605892    -1.31837353
C     -0.35316273     0.80746550    -1.95880737
C      0.10444473     1.90416552    -1.30881586
C      0.26112312     1.93264776     0.13253064
O      0.07795134     1.01584715     0.91810042
H     -0.31817187    -0.16431180    -0.38127839
H     -0.79337916     0.78065536    -2.95066134
H      0.52883725     2.81523615    -1.86851129
H      0.77610885     2.92248004     0.56980834
9
malonaldehyde train delta=-0.742
O     -0.26708425    -0.51948598    -0.31781918
C      0.69990740     0.14239164    -0.96176994
C      0.66492908     1.43761336    -1.29762100
C     -0.30345999     2.35373311    -0.82621168
O     -1.23230811     1.87531542    -0.15074682
H     -0.98379618     0.11740781     0.12014083
H      1.46784724    -0.55635333    -1.44506851
H      1.49447714     1.85760301    -1.78848408
H     -0.28332844     3.34892043    -1.04203409
9
malonaldehyde train delta=-0.610
O     -0.41264458     1.61413920     0.77244565
C      0.13243566     2.13613055    -0.27969993
C      0.37042279     1.52862901    -1.43293764
C     -0.06974723     0.19027846    -1.61600815
O     -0.55160151    -0.49216039    -0.74875041
H     -0.70237073     0.58502744     0.55848607
H      0.37306016     3.17701149    -0.13783731
H      0.83974409     2.12741259    -2.19615139
H      0.21618575    -0.20994658    -2.64940953
9
malonaldehyde train delta=-0.909
O      1.33164470     0.83785322    -0.14821907
C      0.42070045     1.70985505     0.24375347
C     -0.80946933     1.80368380    -0.28721452
C     -1.29115162     0.84246535    -1.26286364
O     -0.52843686     0.13972961    -1.88000884
H      1.01769701     0.28419256    -0.85578509
H      0.84532908     2.32089427     1.00590090
H     -1.55039014     2.33821274     0.19537148
H     -2.50323119     0.79011686    -1.28450940
9
malonaldehyde train delta=-0.802
O     -0.07609956     1.58691100     0.77774354
C      0.65732411     1.96158045    -0.26654981
C      0.49718542     1.37319913    -1.50389710
C     -0.35904738     0.26527416    -1.63719944
O     -1.22201490    -0.10900733    -0.81831729
H     -0.66790631     0.78161805     0.65484103
H      1.48323024     2.56161769     0.03886527
H      1.17253886     1.46651196    -2.33866861
H     -0.19761555    -0.41566899    -2.54268023
9
malonaldehyde train delta=-0.669
O     -1.17974038     1.91183401    -1.39164433
C     -0.05198013     1.46207821    -1.91155419
C      0.84213471     0.76327481    -1.12288846
C      0.50091029     0.25843965     0.16558740
O     -0.48822592     0.61595306     0.78423240
H     -1.16988133     1.70902969    -0.35827111
H      0.12651397     1.68200346    -2.98795432
H      1.67530383     0.43695444    -1.65248276
H      1.16469415    -0.50627400     0.40035397
9
malonaldehyde train delta=-0.656
O     -0.21030257     1.85923287     0.65020410
C     -1.20237677     1.43666762    -0.11661086
C     -1.03714936     0.71785733    -1.29652046
C      0.30224110     0.42557248    -1.78197693
O      1.26751988     0.56825129    -1.04652654
H      0.58523243     1.39706699     0.22950794
H     -2.22915177     1.76395021     0.10517203
H     -1.91971463     0.37202466    -1.82302162
H      0.42091488     0.25268556    -2.79800294
9
malonaldehyde train delta=-1.102
O     -1.80626031     1.19551982    -0.80867309
C     -0.99203556     1.41603448     0.17760514
C      0.31916351     1.07174842     0.30528666
C      1.17350822     0.70932781    -0.81600460
O      0.83078988     0.69363364    -1.99071331
H     -1.28706540     0.85307785    -1.65277580
H     -1.49278469     2.04437131     0.89863269
H      0.70612590     1.23346102     1.31280185
H      2.28621913     0.71862145    -0.41679667
9
malonaldehyde train delta=-0.938
O     -0.85841211     2.37644809    -1.03733521
C     -1.33944297     1.14784344    -1.13194863
C     -0.66615091     0.04166922    -0.78702371
C      0.65820754     0.19034301    -0.22755143
O      1.42706502     1.08105846    -0.21423352
H      0.10435917     2.28445224    -0.89984907
H     -2.40422909     1.18942522    -1.45750158
H     -1.08839922    -0.97009993    -0.87488130
H      1.07022504    -0.76661870     0.28816765
9
malonaldehyde train delta=-0.608
O      0.17727000     0.38713313     0.67000187
C     -0.85185143     1.12573470     0.32153781
C     -1.08045365     1.66754476    -0.85616213
C     -0.08675399     1.42233395    -1.90311981
O      0.91690827     0.67167383    -1.72411703
H      0.65565577     0.21733176    -0.19809681
H     -1.51924173     1.42853251     1.16038908
H     -1.85826290     2.39330835    -1.02046021
H     -0.10243545     2.05684498    -2.82120149
9
malonaldehyde train delta=-0.851
O      0.67780817     0.67117693     0.58855009
C     -0.53469832     1.07261355     0.49799324
C     -1.14808567     1.56819581    -0.63386968
C     -0.51374478     1.21523582    -1.85404575
O      0.57386160     0.71392530    -2.01933736
H      0.98614395     0.46498434    -0.28493574
H     -0.94657610     1.26590259     1.49931490
H     -2.07945665     2.05754891    -0.72070740
H     -1.16166542     1.43444602    -2.71875427
9
malonaldehyde train delta=-0.484
O      0.46569270     0.73594515     0.71083768
C     -0.77211539     1.05698438     0.45761986
C     -1.19111650     1.24069729    -0.83384329
C     -0.29026484     1.24458415    -1.95453976
O      0.85800911     0.87663907    -1.79123831
H      0.77849939     0.62247743    -0.28250863
H     -1.53210409     1.09288101     1.26497425
H     -2.26830295     1.50087153    -1.06597377
H     -0.46206015     1.62145145    -2.91728040
9
malonaldehyde train delta=-0.485
O     -0.18500188     2.19305070     0.33717049
C     -1.12849479     1.29339336     0.09928068
C     -1.07425094     0.46656733    -1.01509105
C      0.24038069     0.19506086    -1.61668393
O      1.25844683     0.78447714    -1.30499963
H      0.66384190     1.78262189    -0.22786859
H     -2.09197383     1.55102683     0.61681727
H     -1.90753563    -0.14941304    -1.22824698
H      0.21140750    -0.66918607    -2.24309035
9
malonaldehyde train delta=-0.645
O     -0.51554925    -0.27532400    -0.14522218
C      0.60776296    -0.01352512    -0.74583882
C      0.91206675     1.23149643    -1.15865265
C     -0.13338288     2.18181760    -0.99743186
O     -1.26534871     2.06244329    -0.48979661
H     -1.22998108     0.42237464    -0.28319555
H      1.44745693    -0.80034684    -0.68275076
H      1.85921641     1.42330581    -1.62441216
H      0.23333450     3.23034034    -1.12853733
9
malonaldehyde train delta=-0.717
O     -0.67864747     2.47591792    -0.92444071
C     -0.93469185     1.29478943    -1.54620054
C     -0.55191761     0.02810361    -1.22847083
C      0.46267896    -0.01310665    -0.06724009
O      0.98026425     1.01966013     0.25516159
H      0.04065253     2.23039580    -0.37279866
H     -1.67099428     1.51448739    -2.40370721
H     -1.03197352    -0.86682838    -1.51392987
H      0.72215158    -0.91579094     0.35018292
9
malonaldehyde train delta=-0.851
O     -1.02887771     0.79653432     0.60608439
C     -1.38969526     1.37362690    -0.57980316
C     -0.52694471     1.52771961    -1.57992041
C      0.85178918     1.05098663    -1.53317233
O      1.33704134     0.45615762    -0.60412925
H     -0.14614376     0.47506712     0.42874710
H     -2.27470444     1.95411507    -0.42278025
H     -0.68428748     2.33366283    -2.27044116
H      1.47386819     1.28981504    -2.37769085
9
malonaldehyde train delta=-0.708
O     -0.56986259     2.50614914    -0.99964088
C     -0.64099181     1.36310748    -1.69310933
C     -0.36100900     0.12000079    -1.33744572
C      0.29925238    -0.07300112    -0.10381320
O      0.55004845     0.90955057     0.61691540
H     -0.09064920     2.25707074    -0.17853937
H     -0.94052380     1.53248335    -2.68636735
H     -0.42528705    -0.69104208    -1.96590538
H      0.77549756    -1.11042977    -0.15343496
9
malonaldehyde train delta=-0.793
O     -1.41558828     0.81998459    -1.52352612
C     -0.19376368     1.20546498    -1.95288946
C      0.90208132     1.32634641    -1.13286717
C      0.68251405     1.13007925     0.29920690
O     -0.31998890     0.71981906     0.84660167
H     -1.44484581     0.65318497    -0.54244756
H     -0.19567445     1.16605964    -3.07013765
H      1.75643127     1.77149512    -1.58412460
H      1.55005733     1.43642164     0.80692631
9
malonaldehyde train delta=-0.780
O      0.60986836     0.73616175     0.63477225
C      0.71276074     1.81906874    -0.16470266
C      0.00977829     1.94666619    -1.34750668
C     -0.93008434     0.94490803    -1.68358737
O     -1.06340853    -0.07617409    -1.04620181
H     -0.06925812     0.20261362     0.30831747
H      1.60746897     2.41971446     0.14663678
H      0.05756247     2.90768102    -1.81546746
H     -1.36566079     1.00507287    -2.70326508
9
malonaldehyde train delta=-0.794
O     -0.86858296    -0.16995262    -1.34470251
C     -0.33738123     0.88842703    -1.91216719
C      0.29194360     1.92605119    -1.26882470
C      0.42857005     1.80783163     0.14765914
O     -0.06349529     0.93370833     0.86922333
H     -0.61307012    -0.15353852    -0.40809345
H     -0.57756007     0.91074585    -2.96155022
H      0.92879330     2.65303124    -1.87563609
H      1.15661129     2.49142351     0.58262231
9
malonaldehyde train delta=-0.801
O     -0.68931693     0.29345093     0.57831094
C     -0.53478214     1.61416893     0.42520938
C      0.14295386     2.08845587    -0.65521536
C      0.39810107     1.28452775    -1.76284873
O      0.08567276     0.10477572    -1.99741524
H     -0.36423344    -0.02548264    -0.28423749
H     -0.78648552     2.21892378     1.21531284
H      0.41790916     3.06512989    -0.54630412
H      0.76428189     2.03584890    -2.65183266
9
malonaldehyde train delta=-0.843
O      0.01313017     1.47563185     0.87536258
C      0.79042610     1.77057776    -0.17038184
C      0.54831430     1.39822851    -1.41814776
C     -0.51190116     0.46088375    -1.75391601
O     -1.31824961    -0.06301179    -0.96864854
H     -0.67057951     0.89091059     0.45813337
H      1.59347670     2.42384839    -0.01333711
H      1.19186862     1.92673174    -2.16991751
H     -0.58822591     0.14655074    -2.78027015
9
malonaldehyde train delta=-0.514
O     -0.76059167     2.37542219    -1.01004101
C     -1.30259960     1.15324678    -1.09394105
C     -0.58782209     0.06356073    -0.88537454
C      0.60697473     0.10228325    -0.19130569
O      1.26076594     1.11992634    -0.24350177
H      0.20264998     2.20074812    -0.63559215
H     -2.20289997     1.22687441    -1.69767372
H     -0.98309032    -0.89590731    -0.83876792
H      0.97885627    -0.67476706     0.53506318
9
malonaldehyde train delta=-0.566
O     -0.04440312     0.91134829     0.83554560
C      0.74081690     1.61871564     0.05387371
C      0.56226984     1.62994318    -1.32308084
C     -0.49168021     0.89337890    -1.91414405
O     -1.24625837     0.20632577    -1.25224780
H     -0.81249012     0.68474179     0.19932090
H      1.58606596     2.13409864     0.50682373
H      1.20140938     2.30106375    -1.82427879
H     -0.59419860     0.89626637    -3.03582915
9
malonaldehyde train delta=-0.663
O     -0.17194432    -0.37276175    -0.33001909
C      0.68147064     0.15962282    -1.13831465
C      0.65796231     1.48667763    -1.38560614
C     -0.35042359     2.19906312    -0.72369115
O     -1.27127790     1.78191988    -0.01777463
H     -1.01844115     0.11161339    -0.00909619
H      1.55492510    -0.44350836    -1.27085975
H      1.40192471     2.06335914    -1.94310184
H     -0.27703179     3.25492626    -0.91297026
9
malonaldehyde train delta=-0.422
O     -0.49234037     1.54476476     0.78620017
C     -0.17594345     2.16304967    -0.31978752
C      0.10936466     1.61011761    -1.52510724
C      0.06336385     0.18975422    -1.57173710
O     -0.10923898    -0.57275046    -0.60781912
H     -0.45685552     0.49794274     0.42714806
H     -0.05518506     3.27802431    -0.15043449
H      0.57988757     2.17311137    -2.23667125
H      0.07738050    -0.17359813    -2.57472698
9
malonaldehyde train delta=-0.630
O      0.02543636     0.18136546     0.55850074
C     -1.10634748     0.42010379    -0.11729941
C     -1.13682783     1.21703073    -1.16376024
C      0.07148514     1.74871217    -1.64660115
O      1.21510833     1.59318127    -1.20296971
H      0.72659644     0.71502275     0.08224346
H     -1.88015678     0.05261260     0.49395982
H     -2.09254549     1.54078578    -1.64393106
H     -0.08475568     2.38530914    -2.50715746
9
malonaldehyde train delta=-0.482
O     -0.49824896     2.46106820    -0.39877484
C     -0.71775668     1.40827775     0.32065305
C     -0.49115473     0.10818104    -0.06297538
C      0.39118884    -0.02124200    -1.13639797
O      0.56498797     0.88845082    -1.97337235
H     -0.18523777     2.01911088    -1.28542539
H     -0.93452568     1.73700788     1.32329407
H     -0.61325524    -0.67671311     0.63253306
H      0.90283390    -0.98884097    -1.20086660
9
malonaldehyde train delta=-0.704
O     -0.56361543     1.56075912     0.76483426
C     -0.53293531     2.13753733    -0.45750595
C     -0.28106780     1.46231954    -1.58210069
C      0.27748402     0.10492028    -1.46237801
O      0.44994344    -0.46317436    -0.38256865
H     -0.18498862     0.67032116     0.67587317
H     -1.04750747     3.05688223    -0.46941959
H     -0.46361243     1.91268425    -2.48681068
H      0.43544473    -0.36749991    -2.45051077
9
malonaldehyde train delta=-0.688
O      1.17387187     1.77787806    -0.33965380
C      0.13693864     1.58067300     0.44149367
C     -0.99864174     0.93095158     0.08467067
C     -0.99525489     0.30403173    -1.24291243
O     -0.24901514     0.50025017    -2.15815764
H      0.92360930     1.45403897    -1.30445361
H      0.40550302     1.98473355     1.48110388
H     -1.61432254     0.51080975     0.81539001
H     -1.74821919    -0.47105509    -1.48043484
9
malonaldehyde train delta=-0.959
O     -1.09275293     0.18214440     0.19992257
C     -0.63536352     1.38462180     0.42978253
C      0.06771030     2.10860912    -0.48768939
C      0.65032241     1.45028556    -1.58760525
O      0.44339961     0.28586032    -1.91516637
H     -0.95102087    -0.18425935    -0.67892930
H     -0.88817031     1.69741886     1.35194767
H      0.37097441     3.11375723    -0.14318988
H      1.29518854     2.06522670    -2.24278347
9
malonaldehyde train delta=-0.489
O     -0.90699356     0.71304785     0.58437239
C      0.28140530     1.19721368     0.55536420
C      0.92556255     1.42078051    -0.66521705
C      0.24166626     1.11819842    -1.86566014
O     -0.92200966     0.71870416    -2.01501126
H     -1.15529965     0.80879959    -0.46440692
H      0.72947430     1.60611148     1.45560736
H      1.95013060     1.84416745    -0.73073584
H      0.80685283     1.58294483    -2.72038440
9
malonaldehyde train delta=-0.594
O     -0.13576353     2.00107946     0.50820424
C     -1.15884655     1.36771384     0.02909089
C     -1.11053554     0.54843054    -1.09859206
C      0.21214549     0.35096007    -1.73517879
O      1.29312346     0.68564254    -1.23257205
H      0.82078520     1.65993779     0.07541071
H     -2.13015119     1.58244802     0.54848381
H     -2.07840819     0.28068323    -1.62256542
H      0.10315020    -0.12600741    -2.75180064
9
malonaldehyde train delta=-0.773
O     -1.38151092     0.66723598     0.26443098
C     -0.19959986     1.28233871     0.52311958
C      0.90160648     1.39027215    -0.26725557
C      0.68983474     1.11088992    -1.70236547
O     -0.36391657     0.77196799    -2.15191591
H     -1.43591251     0.50546507    -0.74031109
H     -0.10958294     1.46629781     1.56584415
H      1.73231532     1.89460156     0.06352420
H      1.51894111     1.28121234    -2.38544738
9
malonaldehyde train delta=-0.725
O     -0.92357674     0.15112453     0.41489685
C     -0.49545290     1.47222969     0.44813518
C      0.05415673     2.12180156    -0.58755525
C      0.42842264     1.44149521    -1.74336448
O      0.30089204     0.23612917    -1.94064939
H     -0.50805658    -0.11396468    -0.45641432
H     -0.60141315     1.90030383     1.38345035
H      0.63022549     3.10449357    -0.29350230
H      1.01842837     1.96701185    -2.54066326
9
malonaldehyde train delta=-0.782
O     -1.36779188     0.53933242     0.18596481
C     -0.44300289     1.39719191     0.52207450
C      0.55216599     1.87000010    -0.35862956
C      0.65378606     1.23950332    -1.63957781
O      0.13946076     0.24959526    -2.02937137
H     -1.22383715     0.34844150    -0.82543787
H     -0.53134447     2.00516770     1.47295935
H      1.19341943     2.62413090    -0.12215529
H      1.50233974     1.82951171    -2.17592303
9
malonaldehyde train delta=-0.987
O      0.76947788     0.46496392     0.57288922
C      0.80763464     1.61947921    -0.08770565
C     -0.01207097     2.03784397    -1.07289581
C     -1.05595833     1.21083963    -1.66654794
O     -1.20417807     0.06882454    -1.28671363
H      0.11332123    -0.18907808     0.18428388
H      1.74191946     2.22556541     0.19451621
H      0.12390420     3.07083021    -1.36502436
H     -1.41813697     1.55331042    -2.65324917
9
malonaldehyde train delta=-0.618
O     -1.00159506     0.03849174    -1.42626940
C     -0.35457271     1.06677730    -2.00772739
C      0.49206815     1.82893622    -1.23999608
C      0.56144747     1.54105197     0.23358940
O     -0.19366474     0.87419023     0.93462859
H     -0.86266018     0.03049230    -0.36523607
H     -0.47407882     1.20864144    -3.11667419
H      1.22944639     2.41789044    -1.71307859
H      1.42473088     2.07693877     0.57525391
9
malonaldehyde train delta=-0.512
O     -1.56653012     1.52863532    -0.31337955
C     -0.47677177     1.40817490     0.48069308
C      0.74976407     0.95625180     0.04354403
C      0.86218450     0.46163920    -1.25994755
O      0.02651338     0.73146182    -2.15341538
H     -1.23693035     1.12769225    -1.26385647
H     -0.64183718     1.73580146     1.43778273
H      1.64610468     0.90148121     0.77719487
H      1.72662662    -0.29518190    -1.49181177
9
malonaldehyde train delta=-0.660
O     -1.49716271     1.64268974    -1.13437235
C     -1.24986852     0.55839825    -0.37723865
C     -0.02060459     0.14221004     0.07137124
C      1.11202222     0.77720131    -0.51139261
O      1.07445238     1.74664065    -1.22887909
H     -0.57416889     1.95319911    -1.40745837
H     -2.17609395     0.11569818    -0.15708841
H      0.03381175    -0.78352671     0.60629058
H      2.03682263     0.32663115    -0.16986896
9
malonaldehyde train delta=-0.883
O     -1.41955171     0.29244490    -0.17253371
C     -1.02337636     1.49526726     0.06171238
C      0.06878308     2.07962241    -0.38269836
C      0.97519452     1.36146027    -1.31129371
O      0.81406153     0.17614269    -1.57255528
H     -0.67013639    -0.23977493    -0.52071210
H     -1.68892860     1.98638555     0.71095074
H      0.43509382     3.03945813    -0.03730157
H      1.82978573     1.98182601    -1.57087743
9
malonaldehyde train delta=-0.793
O     -0.54661399     1.67914198     0.80083576
C     -0.68074642     2.06685912    -0.46160863
C     -0.29957035     1.36345437    -1.55264566
C      0.29608037     0.05556619    -1.47798823
O      0.53649636    -0.45216567    -0.39398347
H     -0.21415262     0.72797870     0.74282035
H     -1.04329033     3.11017704    -0.65962339
H     -0.43874517     2.01003485    -2.45114142
H      0.56384585    -0.32484238    -2.45631518
9
malonaldehyde train delta=-1.178
O      0.39819759    -0.48839407    -0.93292403
C      0.40536471     0.48637147    -1.77004167
C     -0.00302304     1.73192929    -1.46699904
C     -0.71298613     2.12267256    -0.21108813
O     -0.77800989     1.47911930     0.79564579
H      0.11498053    -0.26280971    -0.04991233
H      0.85945803     0.21353070    -2.69789112
H      0.31876379     2.59836606    -2.07304503
H     -1.03299384     3.17090434    -0.25818740
9
malonaldehyde train delta=-0.605
O     -1.11164629     2.12770105    -0.89917686
C     -1.38046264     0.85340107    -0.91643396
C     -0.47406686    -0.08218186    -0.63167272
C      0.95061723     0.36157859    -0.46865545
O      1.29090039     1.54859638    -0.42710888
H     -0.12145385     2.26686019    -0.74680306
H     -2.40626916     0.64030477    -1.19800591
H     -0.61570551    -1.18973576    -0.69447389
H      1.74390689    -0.46462630    -0.63064703
9
malonaldehyde train delta=-1.019
O      1.40306302     1.37442697    -0.37794305
C      0.35414861     1.72441702     0.31995945
C     -0.92812000     1.42024109    -0.02539490
C     -1.21816939     0.67512735    -1.21989713
O     -0.51300654     0.01775085    -1.95531758
H      1.11859967     0.85791151    -1.16168567
H      0.61456806     2.33002399     1.26316321
H     -1.69987324     1.89498239     0.58412434
H     -2.27435827     0.47741581    -1.28439499
9
malonaldehyde train delta=-1.001
O     -1.60100875     0.46964155    -0.15250482
C     -0.97208573     1.52766841     0.24162926
C      0.29461851     1.79019046    -0.13753019
C      1.08799526     1.22396108    -1.26809876
O      0.69446464     0.29316902    -1.93837615
H     -1.06528785     0.03469858    -0.93360524
H     -1.48460166     1.98941212     1.05079533
H      0.65836536     2.77013688     0.22665059
H      2.11209253     1.78678555    -1.40008870
9
malonaldehyde train delta=-0.655
O     -1.45358160     1.33251333    -1.54378482
C     -0.16671642     1.25446627    -1.91395633
C      0.96444016     1.08215701    -1.08051030
C      0.73506660     0.76675713     0.29280302
O     -0.41071876     0.65502332     0.78689937
H     -1.43373632     1.19491998    -0.48711162
H     -0.14782464     1.61024849    -2.94733418
H      1.91617379     1.07001364    -1.64996699
H      1.69465915     0.68367029     0.88577526
9
malonaldehyde train delta=-0.993
O     -0.18558350     0.30155431     0.80209954
C     -1.17243136     0.74799930     0.02392844
C     -1.02336186     1.41069406    -1.16363940
C      0.22656502     1.56554312    -1.87964469
O      1.26894087     1.23375046    -1.35841777
H      0.64482368     0.18836762     0.23443369
H     -2.17858923     0.60210661     0.49228715
H     -1.87544642     1.68866519    -1.71864012
H      0.16743643     1.95010747    -2.92226978
9
malonaldehyde train delta=-0.816
O     -1.34900938     0.54267862     0.15960473
C     -0.47757850     1.52654165     0.46859491
C      0.59312867     1.79309949    -0.24973381
C      0.81828922     1.12380580    -1.54682805
O     -0.02042131     0.32264638    -2.12976138
H     -1.03920029     0.13476552    -0.66961662
H     -0.71546215     1.98467484     1.40079617
H      1.20980074     2.69052922    -0.01850892
H      1.67762998     1.55763432    -2.09098441
9
malonaldehyde train delta=-0.974
O     -1.42484582     0.34803664    -0.12151953
C     -0.86619054     1.50643749     0.17393618
C      0.31753344     2.00155416    -0.20118005
C      0.91944373     1.28231435    -1.33103272
O      0.55411017     0.22622158    -1.80912910
H     -0.88327443    -0.14340749    -0.65592926
H     -1.50584935     1.99510064     0.94493304
H      0.67157681     2.92063952     0.17378144
H      1.85082718     1.82089180    -1.73208322
9
malonaldehyde train delta=-1.287
O     -1.48973862     0.36094861    -0.25443443
C     -0.39337900     0.22765055     0.34824979
C      0.78217305     0.78473218    -0.09753362
C      0.81280477     1.57932251    -1.31508108
O     -0.08395543     2.11955412    -1.94330695
H     -1.65852042     0.85449054    -1.02620865
H     -0.56512206    -0.30660780     1.25215194
H      1.62236094     0.48019564     0.43724922
H      1.82086980     1.77330752    -1.52785195
9
malonaldehyde train delta=-0.690
O     -0.10100324     0.23943003     0.62016364
C     -1.17762005     0.69274169    -0.02740147
C     -1.08606906     1.26774133    -1.19149190
C      0.18698983     1.62412230    -1.75798202
O      1.25875719     1.38718369    -1.21550370
H      0.68485389     0.62059248     0.16089552
H     -2.03462203     0.32014048     0.46066230
H     -2.00398883     1.58814261    -1.67321926
H      0.19872568     2.13247106    -2.73685230
9
malonaldehyde train delta=-0.946
O     -1.19992062     0.15206816     0.09272929
C     -0.81470291     1.40687802     0.33186896
C      0.23208678     2.01899450    -0.25302555
C      0.75457810     1.45295339    -1.52271741
O      0.53426301     0.34022547    -1.93533649
H     -0.95655584    -0.15859215    -0.81116037
H     -1.54913397     1.88382202     1.08785027
H      0.22962694     3.17240421    -0.21939870
H      1.31962942     2.17705127    -2.15557929
9
malonaldehyde train delta=-0.720
O     -0.58246742     2.46464528    -1.23617950
C     -0.28038622     1.33481460    -1.93302203
C      0.09127440     0.16837669    -1.39306017
C      0.30038604     0.03185082     0.10157794
O     -0.13512257     0.82905702     0.91811936
H     -0.46769901     2.10999270    -0.25571549
H     -0.43280650     1.63319935    -2.96671686
H      0.67974698    -0.52846650    -1.96682819
H      0.98097268    -0.77947706     0.27344458
9
malonaldehyde train delta=-0.469
O     -1.01979186     0.68162281     0.52715668
C      0.18103284     1.19962922     0.50883572
C      0.91785165     1.47698314    -0.61210625
C      0.33815999     1.18671400    -1.88569578
O     -0.81419195     0.71847868    -1.95938995
H     -1.10001183     0.38580635    -0.49126129
H      0.68885624     1.38943349     1.53299760
H      1.92267406     1.77834659    -0.52145456
H      1.02834449     1.26910377    -2.78919874
9
malonaldehyde train delta=-0.729
O     -1.44015404     0.74146373     0.11032101
C     -0.24387025     1.16474854     0.55981749
C      0.90822140     1.36999499    -0.22507017
C      0.72903071     1.20833853    -1.61884826
O     -0.30123558     0.72578298    -2.11949971
H     -1.54747497     0.80788639    -0.89906065
H     -0.08462099     1.15153016     1.60589900
H      1.74109949     1.79573864     0.19408505
H      1.52938978     1.42759441    -2.40563760
9
malonaldehyde train delta=-0.604
O     -0.11901156     1.87861587     0.58476254
C     -1.16786346     1.44250715    -0.12452786
C     -1.08424790     0.73499547    -1.19517355
C      0.20779823     0.23597858    -1.60431963
O      1.25542146     0.70567507    -1.21220684
H      0.69096279     1.45401723     0.12107129
H     -2.10554842     1.88228176     0.20911661
H     -1.84354251     0.52409181    -1.87370977
H      0.13101253    -0.57176659    -2.31016155
9
malonaldehyde train delta=-0.989
O     -1.43949110     0.93146652    -1.58006779
C     -0.16230710     1.17087583    -1.98043086
C      0.85534721     1.27915175    -1.10805651
C      0.70686316     1.08655209     0.34352603
O     -0.30879823     0.71370620     0.87526701
H     -1.42145058     0.68386906    -0.68590586
H     -0.22273420     1.32295173    -3.03726889
H      1.75876887     1.60272228    -1.55088432
H      1.64884091     1.23034493     0.81579981
9
malonaldehyde train delta=-1.317
O      0.72027808    -0.25799264    -1.46649976
C      0.00784567     0.71737960    -1.93382887
C     -0.54517286     1.75077931    -1.31028327
C     -0.65014843     1.95581986     0.17380342
O     -0.31978952     1.18836087     1.03310394
H      0.59163026    -0.26778244    -0.49396728
H     -0.17371009     0.55416471    -3.02099533
H     -1.13250226     2.36529808    -1.88364237
H     -0.95382563     2.95849797     0.50619196
9
malonaldehyde train delta=-0.959
O     -1.51179882     1.51990307     0.05663546
C     -0.32018409     1.30848422     0.51963199
C      0.80622693     0.82880387    -0.09745625
C      0.77980728     0.48617062    -1.49169831
O     -0.13152658     0.88346918    -2.25338748
H     -1.55268893     1.34677812    -0.95146789
H     -0.17827449     1.73434101     1.45075566
H      1.67003687     0.53172287     0.40553128
H      1.66783689     0.02032179    -1.98691201
9
malonaldehyde train delta=-0.917
O     -1.35358109     1.77468927    -1.47522455
C     -0.08728177     1.43007400    -1.86983645
C      0.84508269     0.74045918    -1.12821246
C      0.67898710     0.45040301     0.26327770
O     -0.43272805     0.60295531     0.75185039
H     -1.48941201     1.36247509    -0.61107169
H      0.04497127     1.77125802    -2.86413494
H      1.83161099     0.79003689    -1.60405646
H      1.54061755     0.15324960     0.71868841
9
malonaldehyde train delta=-0.905
O      1.28603765     1.80893026    -0.45041309
C      0.24824208     1.66376548     0.36081893
C     -0.97822593     1.08216350     0.02610190
C     -1.15947570     0.32906170    -1.16559921
O     -0.30695610     0.19659950    -1.99513191
H      1.05339155     1.29805625    -1.26705989
H      0.28024407     2.22333224     1.32615222
H     -1.76585878     1.39565140     0.71206574
H     -2.06021801    -0.20942006    -1.34880397
9
malonaldehyde train delta=-0.670
O      0.18453822    -0.52586793    -0.54083835
C      0.61564221     0.34488035    -1.42020467
C      0.27570194     1.65579338    -1.47451330
C     -0.62226610     2.22494795    -0.56081118
O     -1.04630862     1.59455824     0.39399003
H     -0.33448527     0.05509535     0.15272670
H      1.41333785     0.13458774    -2.05400917
H      0.73870963     2.33156113    -2.22372913
H     -0.80977307     3.33407782    -0.72230696
9
malonaldehyde train delta=-0.522
O     -0.11748173     2.06708500     0.48502405
C     -1.14081962     1.40364630    -0.04443513
C     -1.08171848     0.48836586    -1.03634503
C      0.24014476     0.17853360    -1.59944978
O      1.21507386     0.81449241    -1.32400457
H      0.57931634     1.86741360    -0.30702158
H     -2.13366012     1.56122173     0.50490519
H     -1.91266416    -0.07096174    -1.31296562
H      0.21060866    -0.69250554    -2.26925652
9
malonaldehyde train delta=-0.776
O     -0.97935446    -0.11375171    -1.41039795
C     -0.30107203     0.89481636    -1.89085254
C      0.45640872     1.83039586    -1.21242708
C      0.40780685     1.86303230     0.22884580
O     -0.03156524     0.87334979     0.80389473
H     -1.10014917     0.09206155    -0.41490786
H     -0.38282361     0.90076544    -2.98907294
H      0.65538167     2.71566619    -1.82227605
H      0.82695808     2.66595214     0.74660073
9
malonaldehyde train delta=-0.495
O     -1.38846932     0.70599483    -1.50644892
C     -0.23108706     1.16956150    -1.92114421
C      0.84678048     1.39915632    -1.06046496
C      0.74152861     1.19023364     0.29939287
O     -0.33805142     0.75175928     0.74403046
H     -1.27846995     0.60875828    -0.46986460
H     -0.16865245     1.46137917    -2.98111589
H      1.79983185     1.58151539    -1.62948059
H      1.57801675     1.51762689     0.81875344
9
malonaldehyde train delta=-0.615
O      1.08161963     0.41203893    -0.03687748
C      0.53532714     1.54919608     0.29624635
C     -0.54535830     2.04158303    -0.37341173
C     -1.14227908     1.22205861    -1.37941306
O     -0.71619728     0.13972809    -1.82428463
H      0.52082811     0.12891048    -0.80162207
H      1.02237530     2.22632554     0.94287424
H     -1.08235848     2.95432112     0.00064405
H     -2.00592759     1.73871953    -1.90560849
9
malonaldehyde train delta=-0.795
O      0.59213742     0.89106566     0.74827314
C      0.68184781     1.89555307    -0.17006134
C      0.10364934     1.85860834    -1.37695850
C     -0.81220519     0.83860751    -1.72453909
O     -1.18377171    -0.13745106    -1.09949410
H     -0.10106100     0.17256293     0.37956116
H      1.39055619     2.54968132     0.09966250
H      0.21335940     2.76763584    -1.89213994
H     -1.23692118     0.92537396    -2.73972539
9
malonaldehyde train delta=-0.655
O     -0.64504789     0.81957991     0.77780212
C      0.55718551     1.15087817     0.40388774
C      0.91019093     1.38761316    -0.86698470
C     -0.00832038     1.06788291    -1.97015231
O     -1.18591521     0.76058007    -1.84343987
H     -1.26905135     0.76576521    -0.10674502
H      1.16836190     1.35920711     1.35541286
H      1.94183059     1.59592572    -1.14638909
H      0.40213693     1.31587960    -2.89911123
9
malonaldehyde train delta=-0.852
O     -0.60137247     2.45553558    -1.06814236
C     -0.96996493     1.35918678    -1.64093047
C     -0.46350328     0.19098150    -1.20619517
C      0.49066037    -0.00873996    -0.18996067
O      0.82940888     0.87502683     0.57885386
H     -0.02169759     2.24997138    -0.29683894
H     -1.61904200     1.35078407    -2.43227159
H     -0.92575233    -0.78526588    -1.47986915
H      0.83767461    -1.02655620    -0.25373541
9
malonaldehyde train delta=-0.701
O     -1.28083056     1.86260155    -0.07953042
C     -0.35515379     1.21084159     0.48344120
C      0.74587722     0.69212860    -0.07541088
C      0.74496624     0.43406055    -1.45953812
O     -0.25184738     0.79440192    -2.13330632
H     -1.21398743     1.53240968    -0.98676597
H     -0.43326116     1.35140887     1.54325909
H      1.44949568     0.10793001     0.41524859
H      1.56235691     0.03854254    -2.00831505
9
malonaldehyde train delta=-0.429
O     -0.74953031     2.33387708    -1.14667128
C     -0.07361963     1.43547905    -1.80239034
C      0.48223165     0.26180726    -1.35364351
C      0.14031708    -0.01329349    -0.01586278
O     -0.26840190     0.87108324     0.79557978
H     -0.70770150     1.99421717    -0.11838062
H     -0.17322625     1.63032437    -2.93209654
H      0.99694153    -0.42305782    -2.03477237
H      0.22636916    -1.09520922     0.07387301
9
malonaldehyde train delta=-0.713
O     -1.12144633     0.49501376     0.35312021
C     -1.36727998     1.43310431    -0.51767616
C     -0.36195718     1.86344313    -1.37581817
C      0.90608605     1.23791671    -1.42714163
O      1.24133375     0.30545561    -0.65227572
H     -0.17054692     0.12276049     0.33789065
H     -2.36763473     1.91303208    -0.44899005
H     -0.66928253     2.69160516    -2.00902770
H      1.67078434     1.56577161    -2.17624176
9
malonaldehyde train delta=-1.175
O     -0.31198130     0.21462501     0.72481641
C     -0.83867492     1.34066497     0.34628721
C     -0.74273568     1.96705113    -0.88706913
C      0.11018350     1.34007037    -1.87682163
O      0.96659726     0.48332475    -1.76824200
H      0.43403631    -0.19657361     0.21826317
H     -1.48394719     1.73709443     1.10637755
H     -1.23036332     2.85727699    -1.08816403
H      0.13694203     1.84671630    -2.87335281
9
malonaldehyde train delta=-0.918
O     -1.42071918     1.93687017    -0.92909109
C     -1.38874977     0.57758059    -0.82715090
C     -0.24100116    -0.03778858    -0.46814124
C      1.09215565     0.59719108    -0.33798315
O      1.30922574     1.72987501    -0.73922901
H     -0.49447501     2.27255248    -1.10626265
H     -2.34348663     0.18232727    -1.09257673
H     -0.12895154    -1.12455219    -0.28710353
H      1.86339118    -0.04206527     0.05529981
9
malonaldehyde train delta=-0.689
O     -1.36375777     1.56467691    -1.42742478
C     -0.08934308     1.34800648    -1.86077136
C      0.94526157     0.90352941    -1.12461068
C      0.58398919     0.47567830     0.17568737
O     -0.43223799     0.73733210     0.76386042
H     -1.28433355     1.29723716    -0.51949295
H     -0.10101830     1.82878605    -2.87618988
H      1.93660536     0.85879144    -1.59730995
H      1.47696201     0.03650534     0.58970009
9
malonaldehyde train delta=-0.688
O     -0.85556931     0.19237367     0.43510312
C     -0.52134636     1.48209002     0.41909644
C      0.16122099     2.14003235    -0.57579368
C      0.43645559     1.38026745    -1.81390975
O      0.21952314     0.21436967    -1.88954854
H     -0.49362670    -0.08128794    -0.42199767
H     -0.85385434     1.99296306     1.38749269
H      0.39970657     3.07570259    -0.30678993
H      0.64455099     1.96312140    -2.68197711
9
malonaldehyde train delta=-0.816
O      0.79936667     0.14047571     0.19390160
C      0.86977360     1.41438227     0.04814153
C      0.00999886     2.16009419    -0.69007833
C     -1.01402796     1.45033564    -1.49411502
O     -1.29744368     0.23603320    -1.50557746
H     -0.07354571    -0.18356833    -0.21015833
H      1.59564950     2.04037599     0.74303124
H      0.12338880     3.21130915    -0.90555556
H     -1.59002865     2.24854460    -2.03034397
9
malonaldehyde train delta=-1.067
O     -1.11285910     2.27962276    -0.98126328
C     -1.41432790     1.00461298    -0.88129001
C     -0.55437428     0.00193738    -0.64349189
C      0.87231682     0.20438536    -0.40931996
O      1.48157014     1.31640508    -0.45339314
H     -0.18968389     2.42363392    -0.75826853
H     -2.46629239     0.88537667    -1.20495760
H     -0.88607414    -1.01987073    -0.42722530
H      1.40647987    -0.71160478    -0.16314532
9
malonaldehyde train delta=-0.594
O     -1.22951837     2.03061476    -0.55697651
C     -0.89168370     1.16212939     0.33191128
C      0.09463408     0.21127848     0.11752493
C      0.77795689     0.32961605    -1.11109506
O      0.68038741     1.18314749    -1.95807809
H     -0.58751698     1.91837033    -1.32088160
H     -1.60643427     1.03829019     1.17709821
H      0.20944053    -0.62530611     0.82943071
H      1.48123307    -0.58903792    -1.36777265
9
malonaldehyde train delta=-0.973
O      1.21531169     1.83806013    -0.23208045
C      0.14040819     1.52198048     0.48201530
C     -0.90686832     0.82392104     0.04029504
C     -1.07841030     0.32238984    -1.30970958
O     -0.26070909     0.50175804    -2.19342989
H      1.02528197     1.46578631    -1.10547748
H      0.23754260     1.89452979     1.48486193
H     -1.90041146     1.00375475     0.46177922
H     -2.01222659    -0.11283616    -1.63923115
9
malonaldehyde train delta=-0.977
O     -0.80278775     2.46129043    -1.10794586
C     -1.16261883     1.25950629    -1.34569590
C     -0.57574130     0.06325626    -1.02923813
C      0.58856687     0.04716411    -0.27931233
O      1.20418187     0.99361741     0.30128299
H      0.10511930     2.42793912    -0.59872471
H     -2.10684454     1.16105487    -1.82311435
H     -0.85174791    -0.78780626    -1.64855822
H      0.82196894    -0.91132427     0.07646584
9
malonaldehyde train delta=-0.851
O     -1.24834889     2.07395907    -0.52521649
C     -1.01113212     1.08623589     0.28843846
C      0.02932808     0.28232426     0.08793023
C      0.90625103     0.34676559    -1.07631035
O      0.74960760     1.10542203    -1.96703114
H     -0.71774544     2.03616226    -1.35941564
H     -1.82841688     1.00150738     1.06287996
H      0.29651338    -0.53686844     0.75040239
H      1.62648762    -0.36925503    -1.02319786
9
malonaldehyde train delta=-1.061
O     -1.54536066     0.46577237    -0.29442589
C     -0.44263442     0.28548934     0.31115265
C      0.72571915     0.82801825    -0.08544599
C      0.93522748     1.55262263    -1.28097149
O     -0.04348579     1.96229121    -1.89877073
H     -1.61849759     1.08180041    -1.01319835
H     -0.57580092    -0.31808045     1.21832739
H      1.56244149     0.52270916     0.50488640
H      1.88967553     1.45352412    -1.77217676
9
malonaldehyde train delta=-1.050
O     -1.14090580     2.22217148    -1.00179712
C     -1.39220186     1.01368942    -0.80874871
C     -0.47470863     0.02009745    -0.61919737
C      0.93169773     0.22252816    -0.57592048
O      1.38309114     1.33899381    -0.34443554
H     -0.16865116     2.45641246    -1.09557211
H     -2.49197482     0.83247225    -0.75319037
H     -0.85362837    -0.95162833    -0.75767118
H      1.47379095    -0.73643725    -0.51668875
9
malonaldehyde train delta=-0.825
O     -1.14368680     0.09695924    -1.47293671
C     -0.30905886     1.05249146    -1.91174684
C      0.54541842     1.81873187    -1.15924289
C      0.67028325     1.53366126     0.25988769
O     -0.17284152     0.81001601     0.81402196
H     -1.33724464     0.10524709    -0.45512016
H     -0.22366421     1.14270976    -2.96823250
H      1.04823848     2.65430664    -1.66234370
H      1.28787130     2.31108158     0.70183788
9
malonaldehyde train delta=-0.964
O      0.25850574     1.67197854     0.69769005
C      0.16224721     0.40910538     0.45555168
C     -0.12309691    -0.07456621    -0.70445873
C     -0.60073061     0.77533707    -1.85594325
O     -0.37363196     1.97509590    -1.94574339
H     -0.02169105     2.19356371    -0.06282076
H      0.34013327    -0.24727157     1.28166835
H     -0.09663192    -1.07849451    -0.97704723
H     -1.00171827     0.26539988    -2.74060304
9
malonaldehyde train delta=-0.652
O     -1.23012073     1.99966125    -0.98543579
C     -1.35886938     0.72411185    -0.76598193
C     -0.31352998    -0.10726981    -0.59963984
C      1.02954626     0.46864033    -0.54640239
O      1.21364910     1.71857143    -0.45029148
H     -0.27578255     2.26385038    -0.89341649
H     -2.36259533     0.21426831    -0.99210753
H     -0.58344358    -1.15824311    -0.47177061
H      1.83135941    -0.20926820    -0.43739422
