36
iceIh n=12 T=50K rep=0
O      0.71573838    -0.41020579     0.34900567
H      0.59361411     0.52681298     0.42439339
H      1.13581802    -0.56479163     1.20752525
O      1.83992856    -1.38934932     2.45471765
H      1.31334905    -1.17158201     3.29765255
H      2.71262715    -0.98558001     2.71165690
O      2.03434393    -1.26218414    -1.63620326
H      1.43994838    -1.03601578    -0.91003573
H      2.80710913    -0.78658521    -1.63784285
O     -1.93518305    -1.28049265     0.42782956
H     -2.33102040    -1.08791704    -0.48284067
H     -1.04340038    -0.99934460     0.39909129
O      0.60701936     2.16587048     0.28732302
H      0.91806794     2.56892606    -0.33605112
H     -0.23379857     2.69421411     0.39545323
O     -3.00147861    -0.44673052    -1.77760554
H     -3.29414899     0.69421671    -1.74065864
H     -4.01523766    -0.74381877    -1.75062929
O     -1.90427641    -3.77431003     0.47119664
H     -2.38816457    -4.29111955    -0.45195959
H     -1.83312414    -2.92744709     0.35534493
O     -3.36582980    -0.29905279     2.72010649
H     -4.22210590    -0.76017407     2.70281985
H     -2.78803874    -0.70077577     1.87031174
O      0.62666294    -0.29675322    -4.22042557
H     -0.17939278    -0.75132427    -4.24921030
H      0.98179087    -0.79125079    -3.32751254
O      1.95674887     3.31337451    -1.74462895
H      1.56577657     2.79734453    -2.52247380
H      2.80887435     3.15581890    -1.72725400
O     -1.65214473     3.29316590     0.25189120
H     -2.34090569     3.17671540     1.00691338
H     -2.33838762     3.06071351    -0.56945208
O      4.65553317    -0.24229483     2.62012573
H      4.77157971     0.75399363     2.55042778
H      4.95357059    -0.60453369     3.37960395
36
iceIh n=12 T=50K rep=1
O      0.61842316    -0.26434362     0.20566401
H      0.76290169     0.62006748     0.22040502
H      1.09925486    -0.67027903     0.92920001
O      1.93863599    -1.40243107     2.71790287
H      1.52992508    -0.86922258     3.47034484
H      2.87787748    -0.95673166     2.71469213
O      2.03858533    -1.34357386    -1.95101664
H      1.54471453    -0.87229531    -1.07843062
H      2.98345624    -0.96709980    -1.94409111
O     -2.00280978    -1.34863942     0.34163257
H     -2.51081107    -1.08339254    -0.46743830
H     -1.20709360    -1.07766338     0.26687994
O      0.71753757     2.43473092     0.30475826
H      1.08334135     2.87845626    -0.48209561
H     -0.21935600     2.61603729     0.28468576
O     -3.14550622    -0.23542671    -1.79370467
H     -3.34290493     0.67849461    -1.96498433
H     -4.06616417    -0.65010422    -1.88157107
O     -1.92091151    -4.13289133     0.53636201
H     -2.38304311    -4.38464297    -0.25160673
H     -1.79507982    -3.26020346     0.43085071
O     -3.23104737    -0.28911733     2.61030411
H     -4.08632407    -0.77552573     2.68620748
H     -2.75978458    -0.55194195     1.80615956
O      0.75880452    -0.29076543    -4.10818161
H     -0.13771582    -0.65558497    -4.18406548
H      1.03286697    -0.58622340    -3.26855392
O      1.97789836     3.26363907    -1.85879101
H      1.69775467     2.94084831    -2.76432700
H      2.80739480     2.88029975    -1.67503055
O     -1.95902576     3.25883899     0.24525941
H     -2.56454627     3.08855468     0.95838647
H     -2.43657619     3.01483331    -0.40310132
O      4.70220105    -0.22858130     2.61943846
H      4.64662929     0.66939894     2.72037945
H      4.89504740    -0.66094305     3.46367978
36
iceIh n=12 T=50K rep=2
O      0.61655744    -0.49103724     0.20328719
H      0.68428006     0.43196467     0.27915067
H      1.10739520    -0.73379896     1.04871583
O      1.92946108    -1.23671784     2.57551929
H      1.42842371    -0.93143225     3.39340117
H      2.88239763    -0.85641514     2.75043429
O      1.90234060    -1.44088704    -1.76183580
H      1.52308145    -0.83159015    -1.09284035
H      2.80933322    -1.20981879    -1.81610013
O     -1.95661961    -1.33464399     0.47191249
H     -2.34191766    -0.99729968    -0.29323238
H     -1.09883573    -0.95254483     0.54661413
O      0.71584612     2.30589672     0.16946493
H      1.12540374     2.78245447    -0.44085701
H     -0.19061853     2.53399653     0.33835116
O     -3.16608437    -0.37054871    -1.85849128
H     -3.24234201     0.63541782    -1.75512591
H     -4.11876338    -0.64400489    -1.95298474
O     -1.79559145    -3.92953933     0.40394620
H     -2.28026054    -4.20366005    -0.34699528
H     -1.87986767    -2.90739691     0.39050863
O     -3.15417314    -0.23443245     2.74572572
H     -4.12045636    -0.59645305     2.77737005
H     -2.79533591    -0.60462340     1.93305238
O      0.66359267    -0.30454169    -4.19941438
H     -0.07621289    -0.76759760    -4.09200605
H      1.15384269    -0.57286282    -3.40312321
O      1.93612547     3.29961393    -1.77293532
H      1.54260958     2.85817528    -2.63670559
H      2.89715172     3.02391634    -1.83926996
O     -1.80092264     3.25640074     0.43568770
H     -2.33469259     2.79947971     1.19215560
H     -2.26664068     2.82330202    -0.38051224
O      4.64185987    -0.35385459     2.60882205
H      4.69190538     0.62836604     2.50106773
H      5.12483487    -0.56408910     3.40262651
36
iceIh n=12 T=50K rep=3
O      0.66214350    -0.34688621     0.22923861
H      0.79628638     0.55406208     0.29067940
H      1.25864316    -0.55608099     0.95841828
O      2.01305480    -1.21748584     2.67699646
H      1.54386342    -0.88142571     3.33977208
H      2.83929394    -0.96022022     2.62339095
O      1.87103550    -1.20427342    -1.90107449
H      1.29362245    -1.00512743    -1.24021749
H      2.88713482    -0.96767740    -1.79963091
O     -1.88888649    -1.44011302     0.31152551
H     -2.53121785    -0.90560408    -0.25228873
H     -1.01448788    -1.03822088     0.24417454
O      0.71862472     2.46133603     0.50233288
H      1.11385186     2.79845792    -0.29141684
H     -0.16630248     2.56927047     0.49277089
O     -3.16163775    -0.54452774    -1.79928381
H     -3.43815957     0.60841751    -1.85954504
H     -4.17199739    -0.70164580    -1.83549522
O     -1.77131069    -4.00057968     0.41422709
H     -2.42752303    -4.31471256    -0.44865804
H     -2.12368303    -3.07541884     0.39465036
O     -3.07787002    -0.22740995     2.70253176
H     -4.05869225    -0.42472358     2.80743013
H     -2.85830691    -0.87559946     2.04878159
O      0.56620067    -0.31041087    -4.14312009
H     -0.25739634    -0.49488410    -4.29349369
H      0.99114072    -0.59718393    -3.27767511
O      2.05202484     3.57723695    -1.95605905
H      1.54415566     2.97764980    -2.72966044
H      2.77975471     2.93575418    -2.14884955
O     -1.90481361     3.34793768     0.15847489
H     -2.47416882     2.99269210     1.00857128
H     -2.35662700     3.00138123    -0.46442719
O      4.51961605    -0.36114533     2.70196327
H      4.50928603     0.60294952     2.70474950
H      4.96105485    -0.72136078     3.39314795
36
iceIh n=12 T=50K rep=4
O      0.63696276    -0.26977411     0.18535225
H      0.80640676     0.67281754     0.28855427
H      0.85866111    -0.69646347     1.08065399
O      1.89487887    -1.32382151     2.41962592
H      1.50449804    -1.20919276     3.28631163
H      2.85910641    -1.06315972     2.56708944
O      1.93482109    -1.28303416    -1.93207122
H      1.54143895    -0.97853605    -1.06972193
H      2.89277820    -1.04270203    -1.87873154
O     -1.95074585    -1.52352436     0.28596295
H     -2.38820930    -0.93952896    -0.27510779
H     -0.95709619    -1.22175051     0.35290569
O      0.67532043     2.29998805     0.47855720
H      1.30547387     2.65188030    -0.34661523
H     -0.13770361     2.83587372     0.31403311
O     -3.25259451    -0.30259807    -1.93893840
H     -3.19253985     0.52409294    -1.90932519
H     -4.13891656    -0.56007541    -1.97393690
O     -1.89803415    -4.03358562     0.51393256
H     -2.48805837    -4.37205304    -0.22047177
H     -1.97792203    -3.09396536     0.43137781
O     -3.16440100    -0.26509524     2.64456850
H     -4.12069747    -0.68802832     2.57925780
H     -2.75836549    -0.76080709     1.84163271
O      0.61254600    -0.32496049    -4.20443308
H     -0.27441766    -0.74736445    -4.13785788
H      1.07324872    -0.74799429    -3.47263543
O      1.92601712     3.21017995    -1.92174694
H      1.67417217     2.84699706    -2.62546058
H      2.95982707     2.96089926    -1.74828490
O     -1.85843344     3.33548443     0.34349817
H     -2.32906382     3.06734478     1.10252464
H     -2.29382222     3.09270563    -0.28025709
O      4.59510370    -0.48145586     2.52265739
H      4.53764512     0.56266838     2.62890582
H      5.03588076    -0.73278224     3.37376286
36
iceIh n=12 T=50K rep=5
O      0.41617298    -0.58125962     0.29515383
H      0.50871577     0.39880649     0.35103979
H      0.83250363    -0.73551830     1.04301464
O      1.95394988    -1.35539641     2.54501768
H      1.53966080    -1.04412063     3.37363376
H      2.83795689    -0.97663244     2.57108888
O      1.81495231    -1.26983004    -1.88723867
H      1.40992725    -0.76910431    -1.14396469
H      2.88914518    -0.93423867    -1.90032090
O     -1.97322575    -1.43150428     0.51839163
H     -2.58216109    -1.16297268    -0.19454892
H     -1.09677368    -1.16101392     0.56797147
O      0.79843356     2.35750031     0.40321462
H      1.24253241     2.59707903    -0.34116178
H     -0.20346350     2.69591358     0.33457032
O     -3.24210064    -0.39318160    -1.82080970
H     -3.20362158     0.64122968    -1.93627333
H     -4.15470705    -0.70248030    -1.75681876
O     -1.80767017    -4.04066768     0.28416146
H     -2.37480958    -4.24538346    -0.44034078
H     -1.85568621    -3.13379256     0.43557676
O     -3.28304955    -0.20969354     2.73460460
H     -4.20067245    -0.50500718     2.71527083
H     -2.89601280    -0.53730276     2.02651898
O      0.67818987    -0.28484639    -4.20518541
H     -0.29455092    -0.60265453    -4.22238369
H      1.08942893    -0.72180798    -3.41877030
O      1.98321005     3.38838696    -1.91845497
H      1.43992038     2.81938258    -2.59599296
H      2.88642688     3.12198225    -2.01483382
O     -1.72900691     3.39950081     0.34619722
H     -2.35138345     2.97207816     1.13205038
H     -2.24084279     3.01315796    -0.36673350
O      4.31141305    -0.38724146     2.60773291
H      4.54783250     0.50264294     2.65580924
H      4.85493258    -0.77237043     3.39371112
36
iceIh n=12 T=150K rep=0
O      0.57305712    -0.42978434     0.41281653
H      0.67139452     0.57611964     0.41684272
H      1.00929283    -0.74477484     1.11439952
O      1.92993414    -1.43470110     2.71357913
H      1.44714520    -1.11487836     3.51418692
H      2.80772391    -1.07262534     2.69663222
O      1.94987635    -1.40308546    -1.87520363
H      1.54932105    -1.20172615    -1.02569202
H      2.90736224    -1.03649772    -1.88748929
O     -1.97847553    -1.41840013     0.47851161
H     -2.43497978    -1.13740276    -0.25025534
H     -1.10363956    -0.98573368     0.34544055
O      0.72986261     2.32052113     0.50690441
H      1.14235694     2.61411543    -0.38869808
H     -0.18649189     2.69657477     0.47638151
O     -3.43198966    -0.31409307    -1.77634067
H     -3.44396621     0.59451169    -1.75731548
H     -4.25432929    -0.65536396    -1.89119986
O     -1.96245866    -4.18272326     0.39446893
H     -2.45581466    -4.61921170    -0.38156741
H     -2.03808172    -3.29854940     0.37228317
O     -3.22175409    -0.31002890     2.57590220
H     -4.21892845    -0.58968932     2.48173880
H     -2.76940948    -0.68689671     1.79881604
O      0.69043970    -0.33476219    -4.10578793
H     -0.27808476    -0.66551065    -4.10881113
H      0.99732653    -0.70420846    -3.32665171
O      1.96750395     3.32551324    -1.84052648
H      1.54995384     3.06393521    -2.66060583
H      2.79736604     3.11156817    -1.90110206
O     -1.78016388     3.40766573     0.35136410
H     -2.23378010     3.05710856     1.11243767
H     -2.39136991     3.09041699    -0.46780124
O      4.49441997    -0.47973846     2.47793601
H      4.37523262     0.47810080     2.54007191
H      4.98234299    -0.74407829     3.32053758
36
iceIh n=12 T=150K rep=1
O      0.76707254    -0.36349335     0.41461391
H      0.75429247     0.60557657     0.38030040
H      1.16933071    -0.53892875     1.21460235
O      1.97950469    -1.40227343     2.40209800
H      1.55560421    -1.05532495     3.33920924
H      2.81689851    -1.05755044     2.53766025
O      1.99149295    -1.29424279    -1.96712835
H      1.54054010    -0.97713680    -1.12411542
H      2.82769861    -1.09870270    -1.97067290
O     -1.93837111    -1.31485960     0.41309709
H     -2.44867348    -1.05149032    -0.44137394
H     -1.18927046    -0.74769852     0.38586280
O      0.49244051     2.28383094     0.45136699
H      0.92380750     2.56005655    -0.34694744
H     -0.32568311     2.68345385     0.47711979
O     -3.15536465    -0.45102081    -1.80516335
H     -3.20712348     0.47931828    -1.94922470
H     -4.08328472    -0.68616114    -1.76930864
O     -1.69810479    -4.10985123     0.51051745
H     -2.11570663    -4.45736539    -0.24456993
H     -1.72301625    -3.15729487     0.48409768
O     -3.25811350    -0.26990674     2.69472797
H     -4.17438407    -0.71571950     2.59063395
H     -2.83036341    -0.72781375     1.69393216
O      0.78203859    -0.33351437    -4.26736263
H     -0.13366463    -0.70096009    -4.22296155
H      1.20445889    -0.70181143    -3.46247282
O      2.08110721     3.17882719    -1.72755934
H      1.56504147     2.89839496    -2.59045955
H      2.91816491     2.87324525    -1.84042746
O     -1.91514799     3.37499892     0.32469950
H     -2.33785879     3.04336118     1.11171639
H     -2.33316336     3.11939343    -0.35277585
O      4.62613732    -0.48030394     2.52105390
H      4.67068564     0.39791924     2.46828412
H      5.11827425    -0.86508492     3.27023192
36
iceIh n=12 T=150K rep=2
O      0.37785360    -0.33949806     0.45814813
H      0.41809834     0.61890049     0.57426299
H      0.89410093    -0.67898148     1.21104544
O      1.85360149    -1.22933996     2.49573801
H      1.46394768    -0.87899359     3.31068984
H      2.67912882    -0.83013406     2.57342785
O      1.92536282    -1.27684180    -1.80788351
H      1.34989970    -0.91597920    -1.10363592
H      2.74480447    -0.87960103    -1.79426310
O     -1.90959647    -1.31513522     0.30551005
H     -2.27551783    -1.16415615    -0.52118184
H     -0.97107161    -1.12040005     0.30148048
O      0.68323951     2.31294797     0.28277194
H      1.13663064     2.75825558    -0.38239831
H     -0.16423449     2.73246931     0.28653371
O     -3.24831397    -0.50034402    -1.93990120
H     -3.33727877     0.50431449    -1.89993159
H     -4.15769101    -0.81003133    -1.91641743
O     -1.91185074    -3.88792331     0.29858426
H     -2.36387397    -4.15179629    -0.44980028
H     -1.90508765    -2.96620778     0.29174429
O     -3.28202727    -0.24441084     2.65733958
H     -4.07201795    -0.50521522     2.61004976
H     -2.81627706    -0.61906094     1.83710927
O      0.74485102    -0.40005839    -4.29755856
H     -0.15435519    -0.70289696    -4.17016723
H      1.15409690    -0.72635273    -3.51483512
O      1.91780474     3.31451438    -1.84991647
H      1.49691671     3.11785102    -2.68093599
H      2.87472903     2.99039137    -1.97461480
O     -1.80684687     3.35737860     0.43869248
H     -2.34369825     3.11377348     1.14716487
H     -2.36210883     2.95882399    -0.28488385
O      4.62039473    -0.34290267     2.58511051
H      4.61649413     0.51495319     2.68842067
H      5.06994499    -0.67303761     3.34466728
36
iceIh n=12 T=150K rep=3
O      0.65376462    -0.38747721     0.35350375
H      0.71454443     0.43481676     0.48536894
H      1.30271594    -0.60394745     1.14753935
O      1.85628402    -1.37390560     2.53804273
H      1.54557776    -1.05074193     3.53899804
H      2.59756355    -1.05727095     2.50086829
O      1.82151041    -1.43571922    -1.93266420
H      1.41434915    -0.94912284    -1.19797444
H      2.65378150    -0.94846395    -1.97088348
O     -1.98039543    -1.38868037     0.32952872
H     -2.20136669    -1.09254053    -0.61328632
H     -0.98330514    -1.27516779     0.20729370
O      0.86213964     2.43188700     0.36521135
H      1.28639800     2.66644885    -0.37361593
H     -0.01650897     2.58455736     0.40610188
O     -3.06147823    -0.56449987    -1.86797019
H     -3.18842700     0.30448146    -1.86459367
H     -3.92735334    -0.61305850    -1.58927775
O     -1.82278856    -4.13145773     0.38844755
H     -2.31354468    -4.42291674    -0.42053558
H     -1.83229307    -3.24509455     0.29123770
O     -3.18228907    -0.23406192     2.47947691
H     -4.01154144    -0.38476399     2.52482457
H     -2.72990813    -0.54283222     1.75319236
O      0.80033208    -0.41109497    -4.34299026
H     -0.17795807    -0.63309769    -4.29448720
H      1.09238329    -0.68536175    -3.55922900
O      1.94108279     3.32943419    -1.70698574
H      1.43844683     3.04603660    -2.63108232
H      2.87821016     2.93336560    -1.78660125
O     -1.86070860     3.19944079     0.34786363
H     -2.26694416     2.85942918     1.13066434
H     -2.39909244     2.81848406    -0.43357424
O      4.77127455    -0.35150227     2.63826199
H      4.66072752     0.56020531     2.65041596
H      5.10706983    -0.61598886     3.38262253
36
iceIh n=12 T=150K rep=4
O      0.57198541    -0.38046803     0.26701217
H      0.56326071     0.57307678     0.29783759
H      0.94756477    -0.78070128     1.08687551
O      1.86794212    -1.42783857     2.66706224
H      1.41393348    -1.08455526     3.37434762
H      2.78363171    -0.96515477     2.75034752
O      1.98645267    -1.37851513    -1.83888265
H      1.53754343    -0.98759490    -1.13324066
H      2.95921799    -1.01587026    -1.80622434
O     -2.04694913    -1.18958989     0.41845522
H     -2.34856697    -0.94638392    -0.44657725
H     -1.01720967    -0.94397960     0.30738298
O      0.59964041     2.24032672     0.40321210
H      1.08513190     2.54932014    -0.37078453
H     -0.30965714     2.57837097     0.37054334
O     -3.17903528    -0.29183924    -1.95597489
H     -3.24208268     0.54945941    -2.05718516
H     -4.03060385    -0.74948219    -1.86045212
O     -1.73352851    -4.02370916     0.37753159
H     -2.19377379    -4.38531698    -0.26310844
H     -1.72243363    -3.03622691     0.35820319
O     -3.09157390    -0.29841050     2.69457562
H     -4.06105977    -0.72363654     2.64954075
H     -2.70428000    -0.64556367     1.86193100
O      0.72250112    -0.36033523    -4.13382576
H     -0.23794966    -0.76322086    -4.16338378
H      0.94477139    -0.68433068    -3.39640327
O      1.86446337     3.27559398    -1.78208597
H      1.46866395     2.91525658    -2.63054559
H      2.77574671     2.91538115    -1.99479678
O     -1.85984047     3.42657038     0.45449187
H     -2.50716713     3.15307727     1.20796761
H     -2.34344022     3.08266601    -0.29471763
O      4.50761136    -0.33849836     2.53071131
H      4.76155346     0.57888198     2.48868459
H      4.96770002    -0.75309057     3.31593636
36
iceIh n=12 T=150K rep=5
O      0.65899046    -0.42471799     0.44199788
H      0.75431402     0.39178634     0.22233763
H      0.96528231    -0.60456468     1.20991171
O      1.86192156    -1.34659498     2.52687319
H      1.47164344    -1.08779564     3.24442190
H      2.76183358    -1.15532506     2.55105050
O      1.76918904    -1.36588462    -1.97524988
H      1.51471756    -1.01823971    -1.14246793
H      2.66969223    -1.30259499    -2.06095523
O     -1.93553597    -1.22420389     0.51910457
H     -2.12036112    -0.89396949    -0.37416150
H     -1.01164009    -0.98074668     0.64797116
O      0.71702516     2.42330854     0.47788604
H      1.18866585     2.88344281    -0.24763285
H     -0.13125600     2.84422588     0.51080979
O     -3.24917500    -0.37897039    -1.90867135
H     -3.39576864     0.62209240    -2.02419469
H     -4.24650274    -0.84767471    -1.91071167
O     -1.87437955    -4.13395462     0.46538046
H     -2.27303725    -4.30302759    -0.46202099
H     -2.03042518    -3.02861653     0.29915366
O     -3.23194392    -0.36434271     2.65996694
H     -4.04489258    -0.70578807     2.53871782
H     -2.79166467    -0.72779277     1.83894277
O      0.47102082    -0.42405239    -4.17441600
H     -0.27683070    -0.81952856    -4.13693989
H      1.04879250    -0.50749298    -3.39534126
O      1.92503329     3.36560479    -1.75285965
H      1.59769011     3.10307177    -2.53699759
H      2.86689453     3.12764058    -1.77442499
O     -1.86782443     3.40829074     0.39276426
H     -2.49437621     3.14913253     1.19186175
H     -2.40929747     3.08285234    -0.36135680
O      4.52312826    -0.36050890     2.38895187
H      4.69363592     0.54339318     2.57843525
H      4.94862525    -0.82181072     3.23218364
48
iceIh n=16 T=50K rep=0
O     -0.03330278     0.29358834     0.24781641
H     -0.07930931     1.13245315     0.15615197
H      0.62489570    -0.21303297     0.86663443
O      1.43534501    -0.68939990     2.38564660
H      0.88886260    -0.35369243     2.93580997
H      2.34814944    -0.52202844     2.24205832
O      1.21830087    -0.82451192    -2.34652816
H      0.80834351    -0.46690763    -1.31982932
H      2.15117360    -0.50535410    -2.21908224
O     -2.67022757    -0.81105411     0.10172493
H     -2.95893606    -0.51191611    -0.58510130
H     -1.70931128    -0.38375023     0.07538215
O      0.32982764     2.77449093     0.29883398
H      0.77133703     3.11125655    -0.65061648
H     -0.60799105     3.06713988     0.24414451
O     -3.89423790     0.26305000    -2.26169962
H     -3.78407855     1.21146517    -2.16296456
H     -4.77932963     0.02432479    -2.37683389
O     -2.51969104    -3.56729306     0.06654009
H     -2.99023293    -3.94605477    -0.77939980
H     -2.57904770    -2.67934932     0.12583358
O     -3.86560315     0.18488424     2.51618206
H     -4.70871773    -0.16061688     2.26810443
H     -3.23652985    -0.01064425     1.69714733
O      0.31411663     0.14203364    -4.50430054
H     -0.53165105    -0.19801152    -4.42528502
H      0.61753568    -0.30027803    -3.66165057
O      1.42901711     3.76438491    -2.12375073
H      1.07637481     3.60655012    -2.88934742
H      2.42960277     3.45030832    -2.09905918
O     -2.50960549     3.90052890     0.06931739
H     -2.98141992     3.51788735     0.92906085
H     -3.02664538     3.55662079    -0.72791212
O      3.73919327     0.35458146     2.34444137
H      3.80673479     1.22746783     2.30142220
H      4.35705914    -0.03707442     3.21112680
O      1.59258680    -3.58737370     2.20066862
H      1.23523759    -3.92165520     2.99013101
H      1.48960085    -2.56655145     2.33954621
O      4.01650722    -0.03662623    -2.20321874
H      4.48914708    -0.19744888    -1.49039629
H      4.10218169     1.14207440    -2.23824874
O      0.08728847     0.35870632     4.42683241
H     -0.93989622    -0.25747382     4.43303319
H      0.53250525    -0.18780772     5.12846214
O      1.38616082    -3.48719032    -2.31572948
H      1.03664804    -3.87031055    -1.67694669
H      1.46135895    -2.60195913    -2.23473858
48
iceIh n=16 T=50K rep=1
O      0.15497223     0.09549580     0.06744534
H      0.25222945     0.97208525     0.10552280
H      0.63674959    -0.14484396     0.87766821
O      1.37513249    -0.75725675     2.17251606
H      0.97915828    -0.42749361     2.95984102
H      2.30127720    -0.28810285     2.14247061
O      1.49980869    -0.77407093    -2.38039813
H      1.02693214    -0.42280695    -1.50756771
H      2.37529506    -0.38049119    -2.22360504
O     -2.57829120    -0.73038541     0.07099410
H     -2.97520014    -0.44663082    -0.77634752
H     -1.75457567    -0.52773922    -0.00658711
O      0.22882503     2.72003871     0.02217196
H      0.53320485     3.14921817    -0.70870025
H     -0.64899809     3.04899752     0.05026522
O     -3.79865216     0.12176966    -2.18156204
H     -3.87287587     1.00592784    -2.16129872
H     -4.74317039    -0.18992614    -2.07852125
O     -2.35367203    -3.68907390     0.08161496
H     -2.96426053    -3.89513778    -0.61278922
H     -2.41429611    -2.68011241     0.17973196
O     -3.74645137     0.17593741     2.38538889
H     -4.59822922    -0.02454016     2.33086921
H     -3.30342288    -0.12757277     1.61522971
O      0.17425315     0.08779733    -4.51929586
H     -0.68122157    -0.37701248    -4.48367669
H      0.60413647    -0.21262203    -3.68304533
O      1.46143034     3.77745854    -2.09290271
H      1.02372964     3.53627757    -2.81035096
H      2.23375238     3.43640892    -2.09130810
O     -2.39572023     3.74587162     0.15756692
H     -2.93276863     3.37517850     0.95904623
H     -2.96854784     3.45452666    -0.55170163
O      3.94913030     0.27005423     2.26634847
H      4.00784784     1.26965314     2.25856553
H      4.44872620    -0.03537020     3.01639906
O      1.47695345    -3.64350435     2.30101425
H      1.09171709    -3.84853859     3.09992127
H      1.50158090    -2.75925851     2.36437500
O      3.98272851     0.12012289    -2.31056826
H      4.51125223    -0.10080476    -1.54666388
H      3.99336841     1.06643119    -2.22658470
O      0.12779896     0.23208202     4.64966764
H     -0.73331727    -0.11087390     4.68610568
H      0.55339534    -0.05062900     5.50103220
O      1.37654728    -3.67062131    -2.19646216
H      0.91663422    -3.98605774    -1.31237339
H      1.41756755    -2.81022127    -2.26265978
48
iceIh n=16 T=50K rep=2
O      0.06383669     0.24300087    -0.01481311
H      0.05493546     1.34746566     0.04618560
H      0.62656923    -0.23039572     0.84724238
O      1.42528292    -0.83973072     2.45981308
H      0.85926479    -0.62321490     3.10905394
H      2.27835391    -0.52393332     2.25886808
O      1.37547620    -0.83874096    -2.01620091
H      0.93446831    -0.31708510    -1.31527846
H      2.25221489    -0.39477609    -2.15184128
O     -2.39400713    -0.77050981     0.19790021
H     -2.94598667    -0.42513989    -0.76364114
H     -1.60582502    -0.17545547     0.14688095
O      0.16562144     2.99604624     0.08026952
H      0.53779132     3.08452065    -0.73891107
H     -0.65751718     3.27367332     0.00974748
O     -3.91965672     0.10872448    -2.16576526
H     -3.82245920     1.05706954    -2.28891557
H     -4.77620769    -0.01153634    -2.00262640
O     -2.42694268    -3.34727554     0.30214189
H     -2.90498003    -3.87996566    -0.57336028
H     -2.35006933    -2.54488844     0.34831010
O     -3.90147870     0.00423595     2.40726878
H     -4.66019880    -0.21778425     2.12686318
H     -3.23007003    -0.18849018     1.61616527
O      0.26204727     0.32979848    -4.50373975
H     -0.68836906     0.01574901    -4.46869237
H      0.46958595    -0.22684087    -3.79458357
O      1.31232995     3.83552356    -2.04179894
H      1.00391593     3.47821889    -2.87354290
H      2.24082527     3.57718837    -1.96661975
O     -2.45073802     3.94772202    -0.00130982
H     -3.18961084     3.66697262     0.62075155
H     -2.77643032     3.48865186    -0.96100417
O      3.93798485     0.00315512     2.44460262
H      4.10214459     1.14696843     2.41893611
H      4.47036214    -0.03501934     3.00775013
O      1.45363578    -3.64625549     2.41707495
H      1.07585503    -4.02339359     3.12498266
H      1.66560958    -2.80990350     2.41945274
O      4.03106581     0.19064779    -2.21058021
H      4.59606051    -0.15721687    -1.40437861
H      4.05033647     1.19959245    -2.07089041
O      0.09646294     0.19623778     4.43900230
H     -0.75458381    -0.06908536     4.47193391
H      0.45567333    -0.01985680     5.32420421
O      1.47732385    -3.52121006    -2.10815090
H      0.83645472    -3.95471249    -1.33737123
H      1.43204844    -2.59699606    -1.89158936
48
iceIh n=16 T=50K rep=3
O      0.15090212     0.19193783     0.14951646
H      0.21480658     1.07127602     0.02259996
H      0.62172426    -0.10656749     0.82062195
O      1.28938600    -0.70650797     2.47652628
H      1.01627945    -0.37879787     3.18409981
H      2.24560909    -0.49684279     2.39778455
O      1.37583093    -0.82830121    -2.36529766
H      0.87202039    -0.44046860    -1.48005729
H      2.25577911    -0.40984071    -2.16264959
O     -2.65021397    -0.63142061     0.05108607
H     -3.04635811    -0.30562454    -0.69921134
H     -1.71773754    -0.40982116     0.05776200
O      0.10197360     2.88875188     0.05605989
H      0.61287892     3.40988886    -0.58795492
H     -0.74065508     3.20137214    -0.02034576
O     -3.77612581     0.09875741    -2.05730614
H     -3.71623303     0.99288280    -2.16249595
H     -4.79122093    -0.07910157    -2.05210226
O     -2.39131494    -3.61297203    -0.02183559
H     -2.84734904    -3.86563497    -0.72216685
H     -2.44264877    -2.63785201     0.15949682
O     -3.72216695     0.26547546     2.46268106
H     -4.66065723    -0.14151651     2.33751496
H     -3.23798332    -0.19386253     1.77714352
O      0.15557422     0.14118438    -4.34751190
H     -0.75519073    -0.19427802    -4.31553799
H      0.57381204    -0.21601482    -3.62916153
O      1.43437417     3.82554633    -2.04873567
H      1.02725390     3.52651505    -2.82851504
H      2.27019519     3.56116435    -1.96557086
O     -2.19504140     4.04915161     0.00208910
H     -2.78235395     3.75702446     0.80675008
H     -2.84996777     3.68852989    -0.72414736
O      4.06213257     0.07892016     2.39052733
H      3.95939300     1.09961865     2.46070977
H      4.46007265    -0.16603423     3.23836951
O      1.39428528    -3.64399575     2.23602822
H      1.03252834    -3.96087787     2.95138261
H      1.40018288    -2.75484213     2.34032430
O      4.02145627     0.06517147    -2.22582634
H      4.45454347    -0.22023510    -1.47360421
H      4.08993587     1.09063805    -2.20328672
O      0.10396632     0.12109985     4.58081653
H     -0.63898893    -0.20515238     4.60236200
H      0.61549457    -0.21012060     5.34300805
O      1.54006513    -3.58095666    -2.13619558
H      0.86814756    -3.82558517    -1.44757187
H      1.41903598    -2.64249379    -2.14942220
48
iceIh n=16 T=50K rep=4
O      0.23746725     0.14047034     0.08439449
H      0.30777121     1.04685858     0.08816695
H      0.72990779    -0.20459570     0.86810314
O      1.39731932    -0.82825855     2.36549105
H      0.88368438    -0.65712535     3.04431964
H      2.26731299    -0.43184902     2.38363453
O      1.31445404    -0.83850402    -2.06287951
H      0.94053201    -0.44867893    -1.25870099
H      2.14390467    -0.62136405    -2.08001795
O     -2.64209231    -0.76514890     0.18653466
H     -2.91924289    -0.30008587    -0.47703523
H     -1.74341251    -0.56298705     0.12198224
O      0.14674535     2.87409418     0.06867148
H      0.60677880     3.29420200    -0.67743561
H     -0.71723559     3.25407253     0.07640232
O     -3.62161497     0.07448922    -2.03047110
H     -3.78123913     1.13079985    -2.07615822
H     -4.65743517    -0.16950608    -2.09925183
O     -2.35035581    -3.60613387     0.10576621
H     -2.78962537    -3.84275648    -0.69481344
H     -2.40040605    -2.63255760     0.01696764
O     -3.83936418     0.24459162     2.39276539
H     -4.70303005    -0.03166546     2.30770608
H     -3.50005334    -0.02460594     1.52559798
O      0.21669929     0.26202939    -4.32885750
H     -0.71047643    -0.01809436    -4.42106748
H      0.56060645     0.06006010    -3.45113983
O      1.50688159     3.84370935    -2.09387075
H      1.03265050     3.59917777    -2.84233309
H      2.22201394     3.59224518    -2.11280024
O     -2.41566646     3.90661583     0.08365058
H     -2.87673282     3.57827515     0.86254556
H     -2.84794169     3.58276637    -0.81103880
O      4.05959526     0.16828800     2.20777043
H      4.08093408     1.22695106     2.43694884
H      4.48563739     0.01182797     3.18714601
O      1.46011941    -3.51110486     2.33644309
H      0.96253648    -3.78205946     3.02602137
H      1.40721781    -2.50779644     2.19996853
O      3.98323367     0.10182961    -2.31207021
H      4.64510475    -0.27888041    -1.56949829
H      4.10018447     1.05787001    -2.17358512
O      0.04715284     0.11572107     4.48939895
H     -0.74612768    -0.50037578     4.63685720
H      0.44513729    -0.07331829     5.25434312
O      1.44421493    -3.51293861    -2.30006794
H      0.96227954    -3.95523682    -1.49471881
H      1.37903186    -2.61344568    -2.33482330
48
iceIh n=16 T=50K rep=5
O      0.10582770     0.20012232     0.21092172
H      0.08092993     1.13661784     0.20643940
H      0.36669947    -0.19366926     1.04094308
O      1.26385492    -0.88490320     2.34147805
H      0.86052626    -0.56876905     3.12485433
H      2.18843978    -0.58632978     2.37639877
O      1.43327034    -0.77348240    -2.28563958
H      0.93452289    -0.37713359    -1.63333646
H      2.34775525    -0.66832597    -2.17085581
O     -2.32317737    -0.73644966     0.27225615
H     -2.82659048    -0.43857869    -0.47936557
H     -1.49453345    -0.36613434     0.22906274
O      0.14138398     2.85717948     0.11409236
H      0.50532456     3.12090417    -0.71689296
H     -0.80529564     3.22386057     0.11967502
O     -3.73395900     0.10021766    -2.35769685
H     -3.66888593     1.04109243    -2.33402306
H     -4.54616971    -0.17151332    -2.31080638
O     -2.41905661    -3.56361181     0.05189447
H     -2.80167093    -3.84828232    -0.77138304
H     -2.40985087    -2.65388212     0.01747078
O     -3.75850445     0.30399632     2.46409951
H     -4.69253135    -0.16149548     2.31623725
H     -3.10507416    -0.04184114     1.80794693
O      0.22563930     0.26390133    -4.43149854
H     -0.79931372    -0.17633710    -4.35968379
H      0.45061453    -0.19900198    -3.63848228
O      1.48062200     3.95583282    -2.17904456
H      1.00613743     3.57765204    -2.96191605
H      2.49933993     3.50077007    -2.27599257
O     -2.37813748     3.84016229    -0.00148345
H     -3.00678804     3.66828337     0.76309837
H     -2.68474701     3.52892426    -0.75560010
O      4.00510230     0.25432030     2.13258861
H      4.07761934     1.19997172     2.25007288
H      4.58226868    -0.07313184     2.82117869
O      1.50038940    -3.60749502     2.26066041
H      0.99580322    -3.90150555     3.09735224
H      1.53476425    -2.57207905     2.31594481
O      3.99975021     0.27298289    -2.32650348
H      4.40523073    -0.10358792    -1.50790002
H      4.01966534     1.18582494    -2.36817251
O      0.04758813     0.16480662     4.51000671
H     -0.84615207    -0.14081310     4.58068438
H      0.46058509    -0.12138646     5.32580104
O      1.55004704    -3.61845632    -2.20922668
H      1.00392210    -3.89062901    -1.54373250
H      1.62196350    -2.65515891    -2.15728267
48
iceIh n=16 T=150K rep=0
O      0.18523425     0.10254226     0.05357919
H      0.13676971     0.93712933    -0.02031265
H      0.57368771    -0.24830828     0.82133376
O      1.36742254    -0.67973105     2.20059891
H      0.88572177    -0.42699501     2.96019212
H      2.20821541    -0.37255027     2.21218484
O      1.25690893    -0.83432699    -2.19657068
H      0.88951537    -0.38974765    -1.39704864
H      2.19587861    -0.52000334    -2.12882366
O     -2.48520317    -0.77973149     0.26890125
H     -2.86298705    -0.42395088    -0.57044800
H     -1.59944618    -0.59011724     0.19717558
O      0.20745473     2.95010224     0.08970421
H      0.65472842     3.04999467    -0.78672897
H     -0.71634288     3.40120987     0.01431348
O     -3.67750440     0.32860265    -2.27165501
H     -3.83605384     1.13459040    -2.42940560
H     -4.58895096    -0.06503823    -2.10477722
O     -2.23908602    -3.45805654     0.10009861
H     -2.90181161    -3.80444466    -0.54691257
H     -2.34992916    -2.55489915     0.16398484
O     -3.64430546     0.20773216     2.30987926
H     -4.65140536    -0.13706032     2.25003517
H     -3.34320471    -0.25859211     1.55063245
O      0.11371656     0.26388440    -4.56461688
H     -0.83568509    -0.12652962    -4.58922442
H      0.52667562    -0.17386790    -3.88888119
O      1.36439259     3.91220221    -2.10695762
H      1.02522117     3.50876490    -3.05369043
H      2.32447070     3.52943933    -2.19399092
O     -2.43506347     3.89501730     0.15998447
H     -2.86452238     3.50871093     0.99813158
H     -2.95787117     3.55942511    -0.51983328
O      3.95943834     0.29302780     2.35977469
H      3.89116427     1.14096188     2.50707232
H      4.45183985    -0.04822509     3.01218474
O      1.38317297    -3.55018431     2.19609189
H      0.97323169    -3.84101981     3.05611037
H      1.47722394    -2.63523165     2.29682358
O      4.05584703     0.34286497    -2.17785616
H      4.30039389    -0.02945162    -1.40866648
H      4.11097393     1.23507064    -1.94374872
O      0.26518804     0.18580667     4.60379617
H     -0.71051736    -0.09993080     4.64596632
H      0.60033444    -0.10352487     5.44333393
O      1.46382834    -3.50898279    -2.38874471
H      0.97713191    -3.88639449    -1.66479897
H      1.35144164    -2.58618655    -2.38829540
48
iceIh n=16 T=150K rep=1
O      0.14807936     0.15047921    -0.06796841
H      0.17621484     1.07042412     0.04742245
H      0.60153386    -0.30269439     0.76287183
O      1.43750164    -0.79645444     2.14935743
H      1.08760026    -0.40180870     3.02957728
H      2.33359218    -0.37709535     2.24637952
O      1.22921850    -0.71834969    -2.33832574
H      0.89809230    -0.38559479    -1.30673784
H      2.22437256    -0.36576570    -2.28003211
O     -2.64236733    -0.74026463     0.19228033
H     -3.12665803    -0.37317801    -0.52381844
H     -1.71201796    -0.47070426     0.16756396
O      0.29655022     2.88700239     0.06867887
H      0.53704743     2.97868563    -0.84562479
H     -0.68628236     3.18441889     0.18460799
O     -3.77295549     0.16830270    -1.97381532
H     -3.89844887     1.09818117    -2.13456464
H     -4.78076438    -0.03941509    -2.01309231
O     -2.46334895    -3.61994379     0.12442258
H     -3.03203527    -3.79246182    -0.75379732
H     -2.46986844    -2.57800615     0.08551187
O     -3.74662089     0.31949613     2.31793206
H     -4.61762184    -0.01473370     2.25790388
H     -3.28805541    -0.03701120     1.62509365
O      0.10389610     0.16780822    -4.41101039
H     -0.68119851    -0.17880637    -4.54473972
H      0.57044605    -0.06883614    -3.63065784
O      1.43116970     4.08201165    -2.07980516
H      0.98133763     3.57733154    -3.04909390
H      2.19793153     3.57093560    -2.23492972
O     -2.36731405     3.89346352    -0.03932924
H     -2.82055873     3.69011098     0.83929550
H     -2.93732654     3.64200302    -0.68240704
O      4.11504726    -0.07161591     2.24454823
H      4.11544727     0.93098501     2.20410579
H      4.51435600    -0.34321434     2.97112847
O      1.62528190    -3.60035607     2.37263303
H      1.13783607    -3.94629964     3.09431865
H      1.47196609    -2.67842193     2.30539359
O      3.92081835     0.09442350    -2.22527965
H      4.30222192    -0.15744016    -1.41905490
H      4.06563599     1.05546990    -2.05868809
O      0.25278772     0.25388312     4.46232883
H     -0.61592181    -0.12195394     4.50351707
H      0.63306592    -0.05882672     5.19009463
O      1.45971596    -3.60285063    -2.21432739
H      1.08921641    -3.83415744    -1.46419900
H      1.32856634    -2.82829563    -2.18912460
48
iceIh n=16 T=150K rep=2
O      0.09912063     0.10577628    -0.00644054
H      0.21567409     1.08094540     0.04086550
H      0.62430607    -0.00612275     0.86407607
O      1.46251429    -0.80593303     2.25528538
H      1.04132403    -0.54478560     3.06325791
H      2.36531291    -0.48807310     2.36760193
O      1.43768040    -0.80138595    -2.08297198
H      0.93149804    -0.57964828    -1.31623315
H      2.23359069    -0.43838887    -2.09213616
O     -2.56185789    -0.92287516     0.10346728
H     -2.94726625    -0.63806535    -0.73490935
H     -1.71658923    -0.67999963    -0.03299685
O      0.10145699     3.05750006    -0.02084724
H      0.59566330     3.31883582    -0.73154805
H     -0.77893778     3.31627796    -0.14060088
O     -3.75682392     0.27769224    -2.07807046
H     -3.63373559     1.28375498    -2.08388904
H     -4.63382960     0.03274434    -1.97827754
O     -2.47936204    -3.62700237     0.22482154
H     -2.87067527    -3.77070750    -0.68495299
H     -2.43590298    -2.66055742     0.34601391
O     -3.52566263     0.01583284     2.38463777
H     -4.56571010    -0.20635890     2.40327923
H     -3.21819865    -0.23935689     1.51165851
O      0.11028276     0.11201625    -4.33797589
H     -0.72093072    -0.26960440    -4.34067636
H      0.58221451    -0.38163010    -3.63762574
O      1.22681415     3.87915515    -2.15997125
H      0.72257317     3.75032727    -2.86715094
H      2.07231828     3.63928285    -2.29804614
O     -2.25442056     3.93335542    -0.00848371
H     -2.81633621     3.60828795     0.78407490
H     -2.83872405     3.58970914    -0.73532006
O      4.01471000     0.09375418     2.35033765
H      3.94270872     1.07494699     2.23420165
H      4.55876114    -0.19475856     3.09441858
O      1.38411039    -3.61835042     2.23374350
H      0.96663559    -3.97086273     2.99156991
H      1.37516761    -2.70241073     2.24322246
O      3.94695657     0.18614577    -2.30148257
H      4.42461304    -0.19629516    -1.51110402
H      3.96504992     1.13013695    -2.18488434
O      0.16710300     0.30455638     4.76278217
H     -0.70524194    -0.19267931     4.80262672
H      0.65269216    -0.00188769     5.50488614
O      1.32988782    -3.71700789    -2.22633841
H      0.89845164    -3.94780906    -1.37278158
H      1.35580987    -2.69320491    -2.25652509
48
iceIh n=16 T=150K rep=3
O      0.15194295     0.09812984    -0.00580878
H      0.21304400     0.90452494    -0.00674901
H      0.77701756    -0.26083694     0.75624170
O      1.57900282    -1.06196303     2.10066233
H      0.91295852    -0.72613264     2.98506885
H      2.28583210    -0.60892339     2.36906714
O      1.41868672    -0.76177459    -1.93546369
H      0.92012843    -0.48435278    -1.24606420
H      2.31401740    -0.45143231    -2.10187377
O     -2.41378046    -0.81281592     0.28947749
H     -2.72920946    -0.59666202    -0.56744328
H     -1.63018396    -0.47837353     0.12574009
O      0.16455097     2.85241915     0.02092252
H      0.54374686     3.35055727    -0.66943068
H     -0.64753270     3.23018380     0.27727123
O     -3.88445548     0.17610365    -2.12060884
H     -3.66184697     1.04162721    -2.14337620
H     -4.74707655     0.02521377    -2.08213744
O     -2.46293135    -3.30519709     0.00473046
H     -2.94969123    -3.86257962    -0.70711605
H     -2.53636750    -2.53722318     0.04800964
O     -3.68716911     0.34648224     2.49381122
H     -4.70828737    -0.01440106     2.12836623
H     -3.37961997    -0.07040854     1.52882214
O      0.22502104     0.14390839    -4.57291033
H     -0.64954865    -0.18156807    -4.56568559
H      0.51522883    -0.10246440    -3.75561060
O      1.49102297     3.74441672    -2.20055044
H      1.12506431     3.48675521    -2.96599338
H      2.44278600     3.57004770    -2.21986626
O     -2.46183607     4.01168511     0.15008693
H     -3.08701560     3.56527488     0.69585823
H     -2.71895956     3.50827442    -0.65125228
O      4.10967266     0.39117445     2.23432369
H      4.16524027     1.18172159     2.47431863
H      4.43836114    -0.08861366     3.22591238
O      1.51259600    -3.58749963     2.18562406
H      0.97305027    -4.04684638     3.03498466
H      1.18362462    -2.64750510     2.22195014
O      4.08597432     0.20087337    -2.29680626
H      4.44285119    -0.13316312    -1.31104251
H      4.09591692     1.08001831    -2.18207866
O     -0.01654126     0.31488955     4.55406501
H     -0.90873105    -0.07194354     4.59739532
H      0.52039960    -0.13677164     5.21971959
O      1.32582583    -3.56333404    -2.22443246
H      0.93898509    -3.90320089    -1.40072094
H      1.24981341    -2.58892689    -2.16231337
48
iceIh n=16 T=150K rep=4
O     -0.07603477     0.03934155     0.17714797
H      0.13759968     0.87853792     0.08231105
H      0.46734570    -0.32712541     0.89465267
O      1.36127801    -0.68129956     2.59759180
H      0.95750617    -0.38948814     3.31694709
H      2.24389565    -0.46464724     2.61471384
O      1.25803992    -0.77655482    -2.22162000
H      0.75715215    -0.61959273    -1.44609083
H      2.13744010    -0.38978770    -2.20379365
O     -2.65749059    -0.69003441     0.22120643
H     -3.09424891    -0.41388768    -0.63228608
H     -1.64833386    -0.39348169     0.18208534
O      0.14964769     2.84023504     0.09056105
H      0.57969676     3.14120791    -0.67049817
H     -0.74548845     3.32532249    -0.01122614
O     -3.68462519     0.06323140    -2.32999101
H     -3.80156201     0.91979555    -2.20833837
H     -4.65362942    -0.24861014    -2.36959408
O     -2.27561698    -3.46284677     0.00033031
H     -2.79040218    -3.87033977    -0.78012149
H     -2.28541693    -2.65424185     0.00837162
O     -3.82186039     0.24153118     2.34018147
H     -4.73343374    -0.11104897     2.41761500
H     -3.35678873    -0.08629188     1.55869767
O      0.03711272     0.11495358    -4.41826771
H     -0.90505006    -0.20042377    -4.50704380
H      0.39128360    -0.34713745    -3.64710154
O      1.43087845     3.78736656    -2.03867967
H      1.01019175     3.41033255    -2.93328789
H      2.21457515     3.47313597    -2.04904015
O     -2.32994328     4.04476864     0.10207964
H     -2.84256051     3.70943364     0.83999210
H     -2.85598802     3.63265838    -0.63285986
O      4.00846688     0.21757925     2.17974876
H      4.12035397     1.14749946     2.23966215
H      4.50818887    -0.22285954     2.98129027
O      1.44170609    -3.49899410     2.32572602
H      0.88317081    -3.87525989     3.08780469
H      1.39334954    -2.55810085     2.43706407
O      4.08341280     0.07752169    -2.31481939
H      4.48594567    -0.18355182    -1.45967806
H      4.03051479     0.99703597    -2.33803779
O      0.05322917     0.14209269     4.65982311
H     -0.78538589    -0.28981822     4.67347876
H      0.45496757    -0.21311239     5.36819246
O      1.49616321    -3.63787969    -2.11072557
H      1.05544162    -3.87050508    -1.46238385
H      1.47117745    -2.65056411    -2.15883170
48
iceIh n=16 T=150K rep=5
O      0.00531847     0.11152785    -0.02060536
H      0.16394530     1.02457254     0.34101670
H      0.57585038    -0.26674605     0.69822370
O      1.33703713    -0.85684151     2.25757106
H      0.85650440    -0.55252788     3.13745816
H      2.27642662    -0.45776387     2.41683734
O      1.46237329    -0.62909671    -2.12507914
H      0.94464010    -0.43264036    -1.58217988
H      2.20046708    -0.30470918    -2.11460171
O     -2.58818687    -0.76743027     0.05017604
H     -2.97325171    -0.45417000    -0.75216420
H     -1.68309599    -0.38442428     0.12650275
O      0.25480844     2.88081079     0.14059338
H      0.59712715     3.22157716    -0.92423471
H     -0.82956569     3.23607063    -0.02135291
O     -3.78263781     0.17928809    -2.24011318
H     -3.80326390     1.04258736    -2.34651184
H     -4.61639291     0.09807514    -2.15235241
O     -2.57012678    -3.48931550     0.41838863
H     -3.04726539    -3.76381305    -0.58826981
H     -2.50075969    -2.69741664     0.33322711
O     -3.77107675     0.01007615     2.18015688
H     -4.55361217    -0.24795860     2.18345323
H     -3.24364971    -0.13684674     1.48745947
O      0.24917273     0.01852600    -4.53067056
H     -0.81132935    -0.26711479    -4.66748250
H      0.67661320    -0.49584848    -3.66819458
O      1.34446609     3.58514731    -2.05435630
H      1.07893723     3.68628670    -2.80298622
H      2.29017636     3.38814469    -2.21477310
O     -2.46550136     3.92282332     0.17062653
H     -2.82775325     3.60971254     0.87341065
H     -2.83828191     3.32983017    -0.57971024
O      4.03384166     0.19681861     2.40103862
H      4.06927446     1.01311675     2.24797265
H      4.35685865    -0.16975417     3.13665683
O      1.64167155    -3.53763700     2.24474323
H      1.10950452    -3.90327270     3.01927037
H      1.57774123    -2.61016607     2.30075580
O      3.98317172     0.15214910    -2.07041141
H      4.40015587    -0.15379102    -1.30778763
H      4.10272472     1.20495459    -2.03953648
O     -0.14329013     0.19748480     4.52554236
H     -0.94486766    -0.22777844     4.49650238
H      0.37424927    -0.02354217     5.35762122
O      1.56436340    -3.63641719    -2.28019076
H      1.26532185    -3.84186931    -1.47443249
H      1.58132980    -2.66752273    -2.31073069
60
iceIh n=20 T=50K rep=0
O      0.42303030    -0.03729609     0.44651300
H      0.39374920     1.10564370     0.44513231
H      0.76733078    -0.20987868     1.22051738
O      1.60188517    -0.84757643     2.55018105
H      1.25546330    -0.52395054     3.30355393
H      2.51747136    -0.59894120     2.55009433
O      1.58251164    -0.79772570    -1.97246809
H      1.35310057    -0.47560613    -1.19200640
H      2.54816491    -0.46498648    -2.03705262
O     -2.24433631    -1.04049501     0.39728459
H     -2.68793114    -0.70010187    -0.48858162
H     -1.24576521    -0.48428350     0.33076214
O      0.34633583     2.65570472     0.41633521
H      0.77790199     2.83451386    -0.37274101
H     -0.40208160     3.11125286     0.14008294
O     -3.55984562     0.03117785    -1.90834562
H     -3.71782177     0.95645054    -1.75002473
H     -4.53883765    -0.25485618    -2.03143339
O     -2.25904656    -3.65006578     0.32887954
H     -2.60030369    -3.99850329    -0.59992817
H     -2.22637330    -2.78328844     0.28746404
O     -3.49426606     0.15172384     2.63105855
H     -4.37493400    -0.05339565     2.67968042
H     -3.11553029    -0.13627200     1.77939269
O      0.24821137     0.16772452    -4.16262508
H     -0.51672865    -0.29218390    -4.39115010
H      0.69352235    -0.12181596    -3.51445485
O      1.65785802     3.71507778    -1.83828074
H      1.35373751     3.50477762    -2.77200494
H      2.67324336     3.50612884    -1.91346478
O     -2.01517340     3.87371581     0.27807489
H     -2.49253178     3.49352004     1.11634891
H     -2.48771901     3.47069561    -0.47675980
O      4.36342329    -0.00056779     2.39598213
H      4.42491446     1.02580677     2.49835527
H      4.72726272    -0.25294961     3.38970358
O      1.62962955    -3.68580137     2.34016110
H      1.26613891    -3.94800929     3.33455201
H      1.65238260    -2.71482381     2.52686393
O      4.20432649    -0.13850277    -1.98634403
H      4.63625371    -0.35612333    -1.26992489
H      4.30424307     1.05214800    -2.02458869
O      0.49134953     0.04209025     4.73575252
H     -0.43047903    -0.17985444     4.55717640
H      0.80206321    -0.32249969     5.62206478
O      1.66671426    -3.62745444    -1.93172719
H      1.25279931    -4.02252140    -1.29046672
H      1.72029267    -2.75764039    -1.87687325
O      0.51146649    -4.55071442     0.30923798
H     -0.38322541    -4.14984941     0.27320932
H      0.97804526    -4.23615319     1.09247310
O      1.76214186     3.59980224     2.56805242
H      1.33103318     3.30210280     1.84258648
H      1.35720663     3.37201888     3.31685159
O     -3.39387016     2.78246238    -1.82735333
H     -3.04122012     3.21344728    -2.65383484
H     -4.29387757     3.14443469    -1.75564968
O     -2.15782262    -0.87574002    -4.39040473
H     -2.62287172    -0.55057496    -3.62407360
H     -2.19492226    -1.85392397    -4.33024148
60
iceIh n=20 T=50K rep=1
O      0.45456098     0.15123169     0.25798961
H      0.49835918     1.08355978     0.24318605
H      0.84583587    -0.10121985     1.01146587
O      1.48180690    -0.90873798     2.43772550
H      1.14007368    -0.68707751     3.41016209
H      2.32061043    -0.47221384     2.42802212
O      1.58519086    -0.88706174    -1.99641772
H      1.25806433    -0.57273867    -1.14573421
H      2.56321563    -0.63300948    -1.96688068
O     -2.24617249    -0.81462222     0.30128684
H     -2.64482625    -0.59064406    -0.57130650
H     -1.37460188    -0.57369535     0.28187337
O      0.51647054     2.97460726     0.25375753
H      0.90825321     3.16443010    -0.66256478
H     -0.46577399     3.02877769     0.28544316
O     -3.45423647     0.20665843    -1.94275706
H     -3.46551422     1.19785198    -2.03601287
H     -4.37292092    -0.05831570    -2.13090086
O     -2.03619513    -3.51480579     0.34461601
H     -2.60495124    -3.86617004    -0.47137646
H     -2.17417872    -2.60807234     0.24767965
O     -3.62034218     0.23376320     2.43056834
H     -4.56415350    -0.18802447     2.47276835
H     -3.10886581    -0.06161311     1.73107429
O      0.39351311     0.17376410    -4.21675047
H     -0.55323206    -0.30913985    -4.26858077
H      0.87155440    -0.12453315    -3.47638691
O      1.80487333     3.75570240    -1.90885076
H      1.36065691     3.33471486    -2.66801903
H      2.60707108     3.32840570    -1.91395917
O     -2.25476002     3.85237005     0.51422714
H     -2.53987432     3.59021738     1.25963913
H     -2.76384030     3.36482500    -0.16918416
O      4.24883712     0.08039657     2.51279815
H      4.29454313     0.98046642     2.66268051
H      4.64413746    -0.18142374     3.38655874
O      1.90894381    -3.71575374     2.41578861
H      1.49364192    -4.09730820     3.14456958
H      1.75064076    -2.78785269     2.51766772
O      4.36567017     0.11284204    -2.00992683
H      4.75442996    -0.25040755    -1.12791024
H      4.40877648     0.96935521    -1.97287937
O      0.31955682     0.19052080     4.89734589
H     -0.74156384    -0.12746874     4.96627092
H      0.64062830    -0.37133392     5.61662590
O      1.68368766    -3.61883234    -2.02200400
H      1.31857438    -3.96009947    -1.06522001
H      1.61702096    -2.71251386    -1.96257554
O      0.43279423    -4.71095879     0.22911021
H     -0.52025069    -4.26046506     0.26971497
H      0.79179499    -4.36181740     1.00750504
O      1.90630456     3.85880910     2.76373753
H      1.42706888     3.57143231     1.81531284
H      1.41443496     3.54749526     3.38738702
O     -3.64682143     2.70445864    -1.95336422
H     -3.18001752     3.16906792    -2.67411991
H     -4.42666285     3.02587509    -1.96283627
O     -2.20328138    -0.69200370    -4.31001319
H     -2.60713850    -0.47749780    -3.50830074
H     -2.28250087    -1.74306533    -4.39652282
60
iceIh n=20 T=50K rep=2
O      0.13348711     0.00972392     0.37595873
H      0.24268802     0.99320169     0.32274864
H      0.77997159    -0.16202943     1.19595261
O      1.65264240    -0.82584037     2.47757398
H      1.16723439    -0.43773528     3.27153511
H      2.49725400    -0.45084901     2.66729067
O      1.75133442    -0.74265605    -1.90222784
H      1.26617911    -0.40998944    -1.21697188
H      2.67615776    -0.43224888    -1.93595043
O     -2.30839779    -0.85799252     0.33516454
H     -2.72029028    -0.53492524    -0.30211070
H     -1.52959781    -0.57136233     0.38037532
O      0.53899053     2.81613936     0.36595485
H      0.93627158     3.17480032    -0.43218229
H     -0.39315492     3.24582825     0.22377805
O     -3.52922688     0.08521845    -1.97262653
H     -3.51179309     1.07952564    -2.00197703
H     -4.39737302    -0.14602223    -1.81868005
O     -2.29807390    -3.61975914     0.19752574
H     -2.64051441    -3.83076371    -0.48968491
H     -2.30445504    -2.72170301     0.19005874
O     -3.63466778     0.32004633     2.69057301
H     -4.41725371    -0.11139092     2.84404979
H     -3.24147520    -0.02908733     1.68492554
O      0.55276316    -0.13002189    -4.34753150
H     -0.43113222    -0.20030187    -4.27701014
H      0.76420623    -0.26393034    -3.51414894
O      1.67651974     3.84266251    -1.93538963
H      1.17069186     3.51835831    -2.68091972
H      2.49960821     3.40760907    -1.89000703
O     -2.14675804     3.72536842     0.24142200
H     -2.62402327     3.46603035     1.00617030
H     -2.63815961     3.41182171    -0.54939385
O      4.30889429     0.05139575     2.53922298
H      4.19136501     1.05679277     2.58172576
H      4.80824976    -0.25919706     3.15853539
O      1.79418579    -3.73892649     2.42640613
H      1.36490925    -3.89970522     3.21917073
H      1.87581523    -2.71396077     2.46404768
O      4.24539068     0.12677576    -2.04043705
H      4.68766341    -0.12471823    -1.42633052
H      4.20085187     1.12450761    -2.08691962
O      0.34351113     0.07459985     4.75919889
H     -0.51942538    -0.23499453     4.73027587
H      0.67239350    -0.19733754     5.61484991
O      1.87183711    -3.70261654    -2.02681010
H      1.28193236    -3.92129618    -1.27991739
H      1.76605455    -2.60185298    -2.13906567
O      0.45632626    -4.49633108     0.32957806
H     -0.46236520    -4.10642144     0.50786572
H      1.08780625    -4.25388203     1.19381004
O      1.74133504     3.72071001     2.44603699
H      1.24170307     3.55692820     1.70971907
H      1.26605790     3.43249804     3.26342698
O     -3.52121136     2.93121234    -1.86798971
H     -2.97235553     3.31059843    -2.59263936
H     -4.34719110     3.14693445    -1.96406003
O     -2.01360914    -0.75355745    -4.34455850
H     -2.42300723    -0.65940827    -3.50410632
H     -2.05986910    -1.70191863    -4.40480708
60
iceIh n=20 T=50K rep=3
O      0.29797722     0.01016611     0.24189090
H      0.32278715     0.95523453     0.30539104
H      0.85240611    -0.25223220     0.99661362
O      1.69295075    -0.84949448     2.44906581
H      1.29368066    -0.48955371     3.17780726
H      2.55716998    -0.59497805     2.52196361
O      1.61096193    -0.95450600    -2.07899507
H      1.04309700    -0.50433623    -1.28333303
H      2.43616388    -0.59510507    -2.00483543
O     -2.38072041    -0.82128297     0.45464027
H     -2.80862196    -0.49558904    -0.34101966
H     -1.46973786    -0.58419114     0.18901092
O      0.39303139     2.72171410     0.35747288
H      0.79356616     2.92988502    -0.46293862
H     -0.47733708     3.11772074     0.34341475
O     -3.39886802     0.20367760    -1.91684331
H     -3.64196542     1.05758815    -2.15500563
H     -4.23042227    -0.33887702    -1.77040565
O     -2.22144224    -3.68259460     0.28277091
H     -2.51628442    -3.84812802    -0.61875785
H     -2.07399518    -2.78805622     0.29790672
O     -3.45015090     0.08464220     2.65356602
H     -4.32916601    -0.29380092     2.56762600
H     -3.03613481    -0.07900552     1.80323306
O      0.55359107     0.00604415    -4.20338903
H     -0.40989315    -0.32888637    -4.22930172
H      0.90624463    -0.15468321    -3.37388848
O      1.51930211     3.72360745    -2.01923076
H      1.24512682     3.30594171    -2.66770591
H      2.52579043     3.43020354    -1.97200397
O     -2.12032205     3.69701863     0.12748581
H     -2.51565763     3.52243312     0.94186232
H     -2.55603287     3.21915745    -0.50455620
O      4.28462155     0.11552320     2.54447426
H      4.36536232     1.02182682     2.61559462
H      4.75283280    -0.17290315     3.42874244
O      1.63419242    -3.65739171     2.36564385
H      1.19514930    -3.94469829     3.15415288
H      1.52028405    -2.70937336     2.43450642
O      4.31691874     0.08017936    -1.95915502
H      4.74044846    -0.34988426    -1.18204656
H      4.35934644     0.96140545    -2.06585377
O      0.35685006    -0.00683771     4.82573125
H     -0.49697967    -0.23394753     4.79390971
H      0.82438831    -0.34268967     5.63765184
O      1.67925551    -3.67877391    -1.93615686
H      1.29936696    -4.05692705    -1.19699364
H      1.65607463    -2.74590681    -1.91934224
O      0.36358625    -4.52616770     0.12104691
H     -0.49207835    -4.08822201     0.12007607
H      0.80251025    -4.21579212     0.98860019
O      1.81980505     3.64990102     2.63893995
H      1.38460773     3.36731225     1.82443228
H      1.37043933     3.21548839     3.38879320
O     -3.46820697     2.80768471    -1.88256152
H     -3.10329748     3.16554162    -2.68540892
H     -4.38454120     3.17076371    -2.11549973
O     -2.20412375    -0.86396635    -4.37111460
H     -2.63657910    -0.53016566    -3.58955397
H     -2.14203331    -1.82015564    -4.31071727
60
iceIh n=20 T=50K rep=4
O      0.42550462     0.17309075     0.27677508
H      0.47734298     0.95960967     0.19895824
H      0.80233336    -0.21534453     1.17988167
O      1.48905224    -0.79771676     2.38767928
H      1.18726634    -0.40666844     3.08349777
H      2.31067901    -0.65371970     2.38146128
O      1.65230522    -1.02903654    -2.18692712
H      1.37799986    -0.60095002    -1.41264332
H      2.39328155    -0.77666875    -2.18898812
O     -2.30665781    -0.98559462     0.49323401
H     -2.61803991    -0.58350662    -0.50167558
H     -1.26895874    -0.50091115     0.35431759
O      0.44014088     2.91933926     0.39200997
H      0.78955845     3.09104963    -0.43103316
H     -0.56494361     3.12619735     0.24593435
O     -3.62878643    -0.02369515    -1.93971311
H     -3.74042801     0.98578814    -1.84253777
H     -4.44694992    -0.34484825    -2.05148494
O     -2.18604797    -3.81354265     0.13225803
H     -2.70407689    -3.95775322    -0.80979570
H     -2.28065857    -2.74190120     0.32762555
O     -3.54806465    -0.05542564     2.54964048
H     -4.40144887    -0.34409531     2.56163107
H     -3.12512797    -0.22143860     1.70745058
O      0.39096415    -0.00788531    -4.14217188
H     -0.56852527    -0.29334963    -4.23396089
H      0.84398598    -0.30004275    -3.36348137
O      1.74678300     3.75441029    -1.85420948
H      1.20712784     3.39764208    -2.71973356
H      2.57682970     3.33220610    -2.13465285
O     -2.18357123     3.89912861     0.29224915
H     -2.55013739     3.45022504     0.85099150
H     -2.62674430     3.54199701    -0.58587330
O      4.39631769     0.06078963     2.46429110
H      4.20865122     0.94949330     2.61227151
H      4.83206092    -0.01374903     3.29288982
O      1.73394212    -3.62374366     2.58165159
H      1.33778588    -3.89043499     3.27823795
H      1.72104007    -2.68709707     2.59258020
O      4.33421897    -0.08283469    -2.02281840
H      4.60263507    -0.45763069    -1.17110315
H      4.40049575     0.84802860    -1.87977200
O      0.17670324     0.13758381     4.68371454
H     -0.60273425    -0.06709517     4.82575805
H      0.75166449    -0.23789455     5.62338096
O      1.75038670    -3.78564498    -2.06646371
H      1.28684668    -4.07792170    -1.23652403
H      1.82491614    -2.82137466    -1.98074222
O      0.33355276    -4.58733379    -0.00200279
H     -0.57431085    -4.15940348    -0.01051582
H      0.77967902    -4.29728329     0.75938683
O      1.77067131     3.88660400     2.56712179
H      1.22469045     3.44967774     1.81605159
H      1.29502001     3.38200513     3.42844931
O     -3.61329273     2.79082422    -1.80622121
H     -3.35184612     2.96677478    -2.79016447
H     -4.50390585     3.13135201    -1.98521621
O     -2.34140543    -0.76951205    -4.27764887
H     -2.76191137    -0.46547296    -3.43565727
H     -2.44512864    -1.58632816    -4.32725059
60
iceIh n=20 T=50K rep=5
O      0.28140204    -0.03316488     0.30195675
H      0.50632364     0.95004406     0.25294684
H      0.70525863    -0.40184248     1.21639671
O      1.43846809    -1.05532273     2.57982455
H      1.02261441    -0.73435216     3.34851674
H      2.41365210    -0.68102601     2.58100122
O      1.65051860    -0.98896686    -2.03344850
H      1.08363963    -0.68858545    -1.28236862
H      2.63528995    -0.57788219    -1.98951409
O     -2.39013725    -0.86798234     0.30005528
H     -2.78808150    -0.49758468    -0.54595462
H     -1.44595874    -0.53835903     0.31515172
O      0.31595955     2.86503965     0.30236383
H      0.81930220     3.20768133    -0.62653357
H     -0.55735854     3.11429303     0.31057352
O     -3.36171947     0.07690210    -1.79651182
H     -3.51832048     1.07363685    -1.71189998
H     -4.38512902    -0.23262407    -1.98448872
O     -2.23266126    -3.61639421     0.40380554
H     -2.58984616    -3.78758443    -0.43353944
H     -2.18829203    -2.58394306     0.33285403
O     -3.66205461     0.26536192     2.57701150
H     -4.50595126    -0.12040837     2.77564908
H     -3.15341612    -0.30009236     1.86542907
O      0.22064747     0.02021883    -4.38176547
H     -0.50593024    -0.23573405    -4.34456294
H      0.66459198    -0.20912211    -3.54306540
O      1.60708682     3.79065639    -1.93976843
H      1.15958903     3.57688250    -2.70003403
H      2.52878470     3.40302389    -2.03234977
O     -2.12302115     3.67625435     0.36787670
H     -2.39824173     3.16403612     1.05801798
H     -2.51815830     3.47848036    -0.66715107
O      4.32459682     0.22322969     2.51250111
H      4.14102104     0.95329826     2.33944366
H      4.77423705    -0.17529664     3.32070567
O      1.73524272    -3.55627541     2.29192875
H      1.32680444    -3.85122052     3.09256725
H      1.70437164    -2.69096355     2.22859395
O      4.17903020     0.09903032    -1.87442438
H      4.67735740    -0.34644087    -1.10509617
H      4.13014412     1.09175307    -1.88098796
O      0.59650739     0.11875996     4.89370293
H     -0.41621571    -0.39298594     5.01611763
H      0.85609815    -0.13013762     5.62815693
O      1.87277575    -3.60625164    -2.13834694
H      1.30939273    -3.90428961    -1.24210071
H      1.72767279    -2.78900326    -1.98291928
O      0.36654770    -4.67495589     0.24318780
H     -0.52937260    -4.12671953     0.42937365
H      0.79392073    -4.28614451     1.27655622
O      1.58196531     3.66462864     2.49438751
H      1.26152904     3.44305742     1.73289538
H      1.24760810     3.43693838     3.27541110
O     -3.64707026     2.89485749    -1.96331232
H     -2.98218809     3.16777358    -2.68403730
H     -4.39062417     3.13884436    -1.95374917
O     -2.48583062    -0.63952349    -4.12364862
H     -2.78669147    -0.39986481    -3.44683155
H     -2.40128506    -1.60162386    -4.27369790
60
iceIh n=20 T=150K rep=0
O      0.44667933     0.19950175     0.50326160
H      0.51668755     1.03363522     0.40596758
H      0.95640958    -0.21418712     1.23327822
O      1.75805413    -0.84703223     2.44349642
H      1.32934070    -0.29939578     3.33167284
H      2.55122894    -0.34930922     2.51381313
O      1.38682846    -0.80459439    -1.85025116
H      1.10687684    -0.46366112    -1.07404920
H      2.36651347    -0.50950227    -1.73989405
O     -2.38014041    -0.84500528     0.34381583
H     -2.62579076    -0.45166100    -0.35903818
H     -1.34156392    -0.48428064     0.24263782
O      0.45456756     2.87127544     0.26738862
H      0.88954092     3.02999313    -0.53826318
H     -0.41476835     3.19598725     0.28207719
O     -3.32081130    -0.09100608    -2.03391653
H     -3.43234655     0.99672551    -2.08021912
H     -4.17912884    -0.34007716    -1.98706257
O     -2.19029564    -3.80107052     0.22866382
H     -2.74220813    -4.06996851    -0.57395378
H     -2.16567012    -2.67882045     0.25438236
O     -3.33744854     0.21016080     2.59792666
H     -4.26333640    -0.19567315     2.64013923
H     -3.12132693    -0.04666927     1.75329948
O      0.43784215    -0.09503738    -3.97150451
H     -0.56804946    -0.39956010    -4.12355782
H      0.88841856    -0.49309851    -3.26427828
O      1.64302057     3.67292256    -1.83851183
H      1.24109658     3.41222929    -2.78293075
H      2.67061142     3.57345292    -2.00763188
O     -2.22342077     3.97915913     0.24730262
H     -2.65133465     3.30948760     1.01986905
H     -2.64111433     3.49598088    -0.63165003
O      4.21133198    -0.00113151     2.64891432
H      4.17328731     1.08774386     2.55021353
H      4.64239722    -0.27091471     3.43415521
O      1.82309652    -3.60924450     2.59730023
H      1.38048834    -3.94782355     3.19861979
H      1.88057466    -2.74500765     2.38888239
O      4.28618651     0.07059075    -2.01651386
H      4.73004006    -0.13854167    -1.07579415
H      4.24363041     0.99038178    -1.92693012
O      0.27052275     0.07638254     4.80812774
H     -0.44912880    -0.19723272     4.76230374
H      0.97280952    -0.18594707     5.52956278
O      1.59993369    -3.68686722    -2.10227148
H      1.18438974    -3.80186035    -1.21992291
H      1.68731135    -2.61318557    -2.19417494
O      0.35290448    -4.37844891     0.12796167
H     -0.65912149    -4.23000335     0.21793978
H      0.78206199    -4.27537796     1.07192428
O      1.79695382     3.82206029     2.49160379
H      1.40024844     3.37559862     1.86350384
H      1.24456616     3.43826049     3.29874787
O     -3.61141674     2.79649317    -1.89345994
H     -3.00326023     3.08210385    -2.58767482
H     -4.33705623     3.03271012    -1.88318461
O     -2.22187167    -0.61411908    -4.18015303
H     -2.54305602    -0.63148707    -3.49313488
H     -2.21990665    -1.60055712    -4.17143453
60
iceIh n=20 T=150K rep=1
O      0.27994695    -0.10247595     0.21921230
H      0.41914341     1.09978645     0.34297664
H      0.79962894    -0.18533860     1.07637775
O      1.50553191    -0.88360534     2.29341514
H      1.09571847    -0.59126123     3.23197780
H      2.32882492    -0.47578764     2.30340376
O      1.61815339    -0.89673291    -2.23638241
H      1.39817963    -0.65478287    -1.40383371
H      2.50969922    -0.49526473    -2.20840715
O     -2.18490156    -1.00107686     0.36535387
H     -2.71726528    -0.51589633    -0.26355353
H     -1.32181221    -0.83688515     0.11550718
O      0.39631386     2.79441676     0.46528914
H      0.78338872     3.27356443    -0.51923694
H     -0.43754071     3.14972121     0.36976220
O     -3.50355976     0.22332375    -2.03692834
H     -3.58563094     1.15329223    -2.05265959
H     -4.39972090    -0.08457070    -2.01773667
O     -2.01212970    -3.69993422     0.27976454
H     -2.35340567    -3.96229413    -0.39752127
H     -1.87998548    -2.65776936     0.45050383
O     -3.50953868     0.10891011     2.42059553
H     -4.27946708    -0.15958612     2.58136011
H     -3.16972681    -0.21260524     1.78417973
O      0.50989826     0.18519836    -4.30067173
H     -0.47921144    -0.21113639    -4.52313189
H      0.72199307    -0.23294652    -3.44375200
O      1.70894355     3.80313027    -1.93250230
H      1.22916135     3.49995619    -2.76806083
H      2.61604677     3.40553775    -1.97262350
O     -2.22776198     3.94974769     0.29594150
H     -2.50143384     3.43496913     1.13388422
H     -2.69563853     3.75880527    -0.45789879
O      4.20395517     0.09373904     2.51221116
H      4.10671593     1.17149904     2.52829997
H      4.59416593    -0.24404475     3.20266882
O      1.89503718    -3.57100187     2.39892733
H      1.29023819    -3.66566455     3.07809270
H      1.76475359    -2.63345271     2.46662189
O      4.37988223     0.15414660    -2.05838215
H      4.81328928    -0.07754452    -1.11828816
H      4.44261141     1.10882497    -2.08035838
O      0.44458560     0.22410954     4.60438832
H     -0.46526059    -0.02271474     4.59178983
H      0.85994233    -0.34116015     5.42539260
O      1.76700952    -3.62367147    -1.90655826
H      1.24994219    -3.92589700    -1.18332468
H      1.67522091    -2.85013950    -2.11583130
O      0.35043174    -4.51525938     0.28339295
H     -0.48365070    -4.18064539     0.36303132
H      0.94501141    -4.25253198     0.95488829
O      1.74873547     3.71608057     2.32191752
H      1.23796322     3.38756505     1.76847182
H      1.18805429     3.29506372     3.30160180
O     -3.34465356     2.94325248    -1.87978946
H     -2.91699934     3.38876765    -2.74683775
H     -4.42401073     3.42525030    -2.14380762
O     -2.25434761    -0.83155868    -4.37158195
H     -2.80991584    -0.64608714    -3.54621365
H     -2.27926569    -1.83506258    -4.26760110
60
iceIh n=20 T=150K rep=2
O      0.34943678     0.13214536     0.02323652
H      0.36314814     1.06192257     0.08397522
H      0.83464895    -0.24348593     0.85110050
O      1.57834245    -0.86069113     2.45336457
H      1.13692831    -0.57260336     3.26560592
H      2.46921706    -0.58123538     2.54811002
O      1.70961177    -0.80917848    -2.03367398
H      1.25479580    -0.24413222    -1.39680080
H      2.58348186    -0.47367815    -1.96798399
O     -2.30141422    -0.79465982     0.33824513
H     -2.70473187    -0.49205106    -0.36619092
H     -1.37015855    -0.40028498     0.31560616
O      0.44416042     2.76286004     0.30477468
H      0.81351943     2.99046204    -0.46092503
H     -0.48301764     2.95886649     0.12787332
O     -3.55349596     0.12114048    -2.00002006
H     -3.52303276     1.04712661    -2.02303696
H     -4.40844934    -0.14120747    -1.98635741
O     -2.03044111    -3.68891936     0.32970743
H     -2.41285275    -3.99952963    -0.41046395
H     -2.00486633    -2.76982136     0.19155183
O     -3.57716474     0.15705275     2.57174184
H     -4.38753970    -0.20605401     2.48898042
H     -3.14438555    -0.21404285     1.82258472
O      0.29655615     0.17965301    -4.38750391
H     -0.54979366    -0.22771660    -4.21477871
H      0.73913139     0.02385127    -3.54382788
O      1.67749464     3.79430656    -1.84571877
H      1.20693336     3.48041991    -2.70805793
H      2.45384185     3.37007793    -1.90784175
O     -2.20052280     3.97600293     0.16231940
H     -2.68975280     3.68323513     0.92810101
H     -2.62792808     3.48692036    -0.54035445
O      4.25703532     0.06159578     2.48232662
H      4.40334278     1.04660072     2.64163384
H      4.63788849    -0.33172564     3.29215582
O      1.68300226    -3.63020132     2.54819745
H      1.21015266    -3.88814105     3.29935828
H      1.65519290    -2.65554753     2.45037654
O      4.29887092     0.09839385    -2.09027472
H      4.83615046    -0.08915705    -1.20467789
H      4.28917664     1.07790474    -1.96173060
O      0.25158401     0.14346049     4.75292397
H     -0.60212195    -0.31639308     4.79657636
H      0.60122749    -0.25543461     5.58934408
O      1.58333716    -3.55887230    -2.10139668
H      1.13101805    -3.97776222    -1.29083517
H      1.52664959    -2.66296985    -1.94470724
O      0.35474253    -4.57793529     0.13374842
H     -0.53008024    -4.25400478     0.33916600
H      0.93945303    -4.24306323     0.87317413
O      1.82661425     3.84565453     2.43608361
H      1.24024464     3.48091389     1.63112982
H      1.29218307     3.44062460     3.15926882
O     -3.35685607     2.90198532    -1.89451492
H     -2.99942477     3.07564185    -2.68613807
H     -4.24391912     3.17177469    -1.86387881
O     -2.12418398    -0.83793154    -4.37017002
H     -2.70769040    -0.46364655    -3.54143239
H     -2.22016241    -1.79094684    -4.17541784
60
iceIh n=20 T=150K rep=3
O      0.44675668    -0.08245281     0.23568331
H      0.49779422     0.92075374     0.33188550
H      0.80353745    -0.55069515     1.14804354
O      1.66310151    -0.72949434     2.50768154
H      1.36340450    -0.37813313     3.31983697
H      2.53816647    -0.38539806     2.45032669
O      1.63939076    -0.81282275    -1.99243019
H      1.12674631    -0.60003245    -1.25993918
H      2.34431557    -0.50725167    -2.01726091
O     -2.22414250    -0.60858982     0.48213759
H     -2.66230656    -0.32866414    -0.48487122
H     -1.46880808    -0.33266854     0.47987422
O      0.45400585     2.72398515     0.32898802
H      0.97105930     3.08151602    -0.39539928
H     -0.50706688     2.98139486     0.33607440
O     -3.53659563     0.10072879    -1.91892894
H     -3.51110009     0.92992051    -1.83668563
H     -4.41694294    -0.30750075    -1.81905843
O     -2.16655593    -3.62534345     0.22607027
H     -2.78077012    -3.89921044    -0.45209821
H     -2.24050115    -2.59926240     0.08865704
O     -3.34092993     0.06627856     2.50158039
H     -4.27057504    -0.12126333     2.57785148
H     -3.02541467    -0.12528488     1.81011867
O      0.28304332     0.10826045    -4.28320712
H     -0.59095226    -0.18972904    -4.18390093
H      0.79916501    -0.41959398    -3.54617471
O      1.64936282     3.85774209    -1.86608364
H      1.18555617     3.46401639    -2.73524133
H      2.58330010     3.61465949    -1.84341606
O     -2.09753236     3.76724035     0.14428743
H     -2.51812760     3.47672759     0.88986377
H     -2.67790550     3.47083550    -0.51795711
O      4.19272270     0.04779852     2.48427911
H      4.25192609     1.04043957     2.33670641
H      4.87415011    -0.04626035     3.32533865
O      1.66950079    -3.57228868     2.23330335
H      1.25454742    -3.83451332     3.32771628
H      1.67145366    -2.68991831     2.49175560
O      4.23729535    -0.12305082    -1.93924114
H      4.77812106    -0.32464537    -1.15428503
H      4.32083508     0.77096080    -1.85174123
O      0.44283574    -0.04228007     4.84881360
H     -0.47180039    -0.31456384     4.91998407
H      0.88100196    -0.25144141     5.69961333
O      1.67597652    -3.81632529    -1.95649846
H      1.35130361    -4.05981917    -1.14391646
H      1.74259694    -2.82382583    -1.91284462
O      0.52972201    -4.65569535     0.08117432
H     -0.34029971    -4.09474050    -0.05223700
H      0.91432062    -4.13801400     0.90903368
O      1.67570165     3.67448459     2.57429249
H      1.27881951     3.36748875     1.70593230
H      1.05818916     3.37742037     3.21513341
O     -3.49936816     2.90279963    -1.89974971
H     -3.11271828     3.23035637    -2.79381012
H     -4.50197105     3.19823841    -1.87716790
O     -2.22717929    -0.85944654    -4.26131766
H     -2.60493889    -0.56923727    -3.47900265
H     -2.16641626    -1.78678042    -4.10473394
60
iceIh n=20 T=150K rep=4
O      0.34302448     0.02821761     0.33596585
H      0.45090568     0.97386382     0.35256874
H      0.84641433    -0.22000766     1.04033000
O      1.66469004    -0.70622848     2.48186819
H      1.28432937    -0.67316436     3.41363907
H      2.59191947    -0.45401093     2.38943588
O      1.61828628    -0.63999062    -2.11451810
H      1.11507551    -0.43509222    -1.16609642
H      2.46530609    -0.39116281    -1.92981209
O     -2.32579874    -0.81619053     0.36590800
H     -2.69376524    -0.38696631    -0.45050877
H     -1.29439637    -0.35172632     0.04505547
O      0.63895021     2.99567412     0.42191706
H      1.02598768     3.29416252    -0.48487147
H     -0.31316626     3.21945248     0.17863396
O     -3.66189721     0.25604957    -1.92817930
H     -3.50623370     1.06524515    -1.99810985
H     -4.35269795    -0.24594684    -1.95988499
O     -2.21216599    -3.81626580     0.31090319
H     -2.66565145    -4.11793651    -0.51125357
H     -2.43406169    -2.70811485     0.33997456
O     -3.69179709     0.26720659     2.57499213
H     -4.47482618    -0.03044976     2.35057623
H     -3.17556171    -0.02513947     1.54580651
O      0.63273975    -0.03598595    -4.25361462
H     -0.35684621    -0.21129840    -4.30604064
H      0.99171022    -0.24643051    -3.37274724
O      1.71345548     3.76994417    -1.81487477
H      1.40620571     3.28618773    -2.85575004
H      2.58820857     3.72604068    -2.01457549
O     -2.12489893     3.90420716     0.03577855
H     -2.61872330     3.65033798     0.90044514
H     -2.60579083     3.62688441    -0.48012842
O      4.36312769     0.20856931     2.31347502
H      4.29127345     1.27374257     2.45732751
H      4.80059646     0.12122989     3.05011271
O      1.62751950    -3.55774705     2.48928886
H      1.28913830    -4.04626209     3.24836710
H      1.68837050    -2.75629033     2.57690205
O      4.29389464     0.25094080    -1.93398415
H      4.63071955    -0.06268698    -1.25392168
H      4.38345956     1.04538398    -2.01219488
O      0.22169913     0.38787746     4.89541990
H     -0.50341643    -0.14539859     5.19829940
H      0.73449795    -0.16801500     5.61527369
O      1.63513393    -3.75611919    -2.08450782
H      1.05223290    -3.83443184    -1.26088908
H      1.72935055    -2.69732913    -2.07212579
O      0.11542964    -4.58405766     0.18358224
H     -0.65759716    -4.30590287     0.25735426
H      0.69537289    -4.54847875     1.02329178
O      1.91681312     3.72634675     2.74664643
H      1.51410148     3.30538066     1.78048842
H      1.34766546     3.42226766     3.33663230
O     -3.71292976     3.04272302    -1.96032371
H     -3.03338042     3.00881383    -2.85885497
H     -4.43499706     3.29859865    -2.02694198
O     -2.16056859    -0.76979974    -4.35623358
H     -2.42724412    -0.42769095    -3.46081668
H     -2.32690493    -1.63957491    -4.26286699
60
iceIh n=20 T=150K rep=5
O      0.35418056     0.11875673     0.19793632
H      0.32927419     1.02040115     0.18673320
H      0.85982182    -0.15404343     0.99424326
O      1.59439188    -0.92155514     2.33869293
H      1.10586635    -0.60479106     3.22295103
H      2.40638959    -0.52733011     2.39761001
O      1.56466156    -0.89166362    -1.93083761
H      1.22461994    -0.51565148    -1.11979416
H      2.54052623    -0.56280529    -2.01307403
O     -2.08077634    -0.79079960     0.42466659
H     -2.68153974    -0.44747112    -0.31369578
H     -1.25598269    -0.49659420     0.20632828
O      0.42769617     2.68937838     0.23821837
H      0.98206228     2.95318163    -0.54376635
H     -0.48429448     3.02405636     0.09515771
O     -3.33970714     0.04252156    -1.93821294
H     -3.46781927     0.98819025    -1.89854140
H     -4.31074381    -0.32983338    -1.86393692
O     -2.09879237    -3.71723856     0.30049537
H     -2.59465639    -3.95077874    -0.50138047
H     -2.07472736    -2.64855224     0.26162887
O     -3.53486822     0.07271695     2.56210521
H     -4.34609461    -0.37341243     2.45467587
H     -2.96178315    -0.22284721     1.84089041
O      0.28711222     0.10936771    -4.32424389
H     -0.51957693    -0.24612036    -4.22833490
H      0.84454814    -0.30285532    -3.51752836
O      1.66209646     3.84442039    -1.95448283
H      1.26954443     3.37910048    -2.74616054
H      2.52288752     3.41464014    -1.92305568
O     -2.09855115     3.90236321     0.17671292
H     -2.37776425     3.59223378     0.99994926
H     -2.61828715     3.57245263    -0.55615115
O      4.20540468     0.10274006     2.30772863
H      4.18135296     1.07844139     2.41011403
H      4.78734178    -0.11327334     3.14520106
O      1.68005531    -3.48270760     2.48734911
H      1.23275305    -3.84981504     3.34089502
H      1.82139817    -2.57303784     2.63189016
O      4.29834775     0.10813516    -2.02074976
H      4.62741061    -0.06674174    -1.14085172
H      4.21102591     1.07821253    -2.00281166
O      0.42448172     0.03782573     4.80618040
H     -0.45475182    -0.28823536     4.74849354
H      0.83333145    -0.32554108     5.56603198
O      1.67581301    -3.62849268    -2.07351297
H      1.28170866    -3.91114583    -1.31857259
H      1.74981452    -2.66574008    -2.00324833
O      0.34777932    -4.58495734     0.24014959
H     -0.51963727    -4.30308185     0.21084403
H      0.83616372    -4.26639754     0.96693627
O      1.70884069     3.66101624     2.62683018
H      1.34096669     3.65580797     1.77931790
H      1.18287528     3.43056851     3.26162234
O     -3.49506924     2.77316079    -1.87841865
H     -2.97592716     3.12356323    -2.54709374
H     -4.42132051     3.00696101    -2.11538866
O     -2.27737917    -0.87552726    -4.20397104
H     -2.71257724    -0.60191617    -3.42833154
H     -2.33003766    -1.76277082    -4.15851513
72
iceIh n=24 T=50K rep=0
O      0.06940528    -0.32144313     0.27267849
H      0.24448331     0.56009433     0.40715662
H      0.77081833    -0.69476717     1.07043055
O      1.59499330    -1.22752519     2.59981883
H      1.16785438    -0.78762130     3.38881085
H      2.26427382    -0.82492077     2.48405622
O      1.31627001    -1.22742356    -1.78386544
H      0.99871535    -0.95710674    -1.06813648
H      2.31989321    -0.98363689    -1.77100364
O     -2.53120881    -1.33953890     0.34770310
H     -2.75284781    -0.88263294    -0.27368489
H     -1.57734514    -0.78646371     0.36021854
O      0.00084629     2.36298079     0.51411652
H      0.50802819     2.97483830    -0.26348711
H     -0.83489942     2.83355128     0.31716163
O     -3.79290358    -0.24943020    -1.74212781
H     -3.93905634     0.58280654    -1.73447591
H     -4.61226953    -0.64286194    -1.55875838
O     -2.44908966    -3.99268049     0.34631680
H     -2.93376856    -4.31200567    -0.34631875
H     -2.52371082    -3.05898927     0.34919781
O     -3.76432227    -0.10344321     2.54920184
H     -4.57874474    -0.47119500     2.53470129
H     -3.17634318    -0.61609495     1.85538948
O      0.11130717    -0.15703919    -4.22153121
H     -0.87495927    -0.47880885    -4.12491618
H      0.65642758    -0.45168150    -3.54795114
O      1.41752290     3.36608385    -1.79384191
H      0.98211143     3.06876827    -2.60519912
H      2.19509922     3.06404785    -1.76621341
O     -2.60461947     3.40174765     0.37383445
H     -3.02390853     3.29540007     1.00536655
H     -2.97959690     3.08526072    -0.45231056
O      3.94210472    -0.12901408     2.69159686
H      4.00996756     0.76363437     2.73453172
H      4.57023937    -0.53439330     3.50983964
O      1.34967100    -3.90921139     2.59031518
H      1.12294205    -4.29810226     3.61872184
H      1.46989373    -3.12123545     2.66478706
O      3.91656119    -0.28282742    -1.89110354
H      4.54945611    -0.61310057    -1.07203940
H      3.76124394     0.62652329    -1.82402223
O      0.16924213    -0.28626640     4.91154994
H     -0.84096854    -0.64230119     5.04605186
H      0.69885989    -0.58921632     5.68581394
O      1.63482390    -3.90067131    -1.79125014
H      1.05512598    -4.38737716    -1.17747139
H      1.32779396    -3.00136322    -1.83048172
O      0.25219692    -4.97270484     0.41693038
H     -0.63185192    -4.80686586     0.18977660
H      0.54454645    -4.75197144     1.15577008
O      1.74398736     3.35760086     2.76528185
H      0.98772977     3.06168201     1.95627502
H      1.18525690     3.22788937     3.51014591
O     -3.89619494     2.40598224    -1.84111945
H     -3.40078959     2.79105976    -2.76059131
H     -4.74548573     2.77925946    -1.80892440
O     -2.45474817    -1.12666462    -4.21683892
H     -2.87620144    -0.84616901    -3.38038738
H     -2.49042632    -2.11305066    -4.09979979
O     -3.70106231     2.60295566     2.68182786
H     -4.48222164     2.91358882     2.65186923
H     -3.73208053     1.64621423     2.64813019
O      0.06223483     2.69016172    -4.35074124
H      0.19239654     1.67565728    -4.01153628
H     -0.90477182     2.68983005    -4.14194741
O      4.09578105     2.63396939    -1.84894631
H      4.58182018     2.96010218    -1.23421937
H      4.47902719     3.01674689    -2.72347570
O      5.39394594    -1.23873520     0.31652877
H      4.96116629    -0.96925804     0.99642873
H      5.29754029    -2.09995112     0.35361653
72
iceIh n=24 T=50K rep=1
O      0.07195368    -0.31309227     0.50037073
H      0.22562722     0.65475090     0.49338532
H      0.53403330    -0.64823400     1.32512523
O      1.43154341    -1.12862154     2.56873592
H      1.00494686    -1.02523607     3.30870658
H      2.30411698    -0.89124093     2.49692329
O      1.40171040    -1.29636609    -1.90866456
H      0.92798462    -1.10920241    -1.08642486
H      2.25809971    -1.00599762    -1.66442607
O     -2.49398301    -1.13004769     0.30189570
H     -2.85276090    -0.60274772    -0.39758510
H     -1.49540021    -0.81269008     0.41024879
O      0.08333111     2.46946425     0.51748877
H      0.63808121     2.74536300    -0.41063949
H     -0.73241915     2.59337543     0.47380784
O     -3.65487988    -0.27283739    -1.86019393
H     -3.87477607     0.77791497    -1.76079486
H     -4.65901723    -0.62037660    -1.92898443
O     -2.44270063    -3.91926166     0.35100340
H     -2.93428131    -4.19869656    -0.37651204
H     -2.66240191    -3.02117155     0.36993740
O     -3.72254210    -0.07770739     2.64043145
H     -4.71781653    -0.45460144     2.64852499
H     -3.42774692    -0.63310815     1.86608169
O      0.07761586    -0.24024580    -4.05027838
H     -0.76930045    -0.50680435    -3.92324389
H      0.47904891    -0.54433667    -3.26333109
O      1.63032194     3.37906658    -1.88619586
H      1.25489053     2.89948342    -2.59676717
H      2.46596073     3.18386466    -1.76184586
O     -2.40046421     3.67083811     0.35917411
H     -2.90303304     3.18968702     1.13638886
H     -2.86450552     3.17429635    -0.27330619
O      3.92122405    -0.21276247     2.65872548
H      3.96813570     0.87123287     2.75701724
H      4.40188769    -0.41090772     3.45924354
O      1.55319341    -3.91554205     2.55652396
H      1.09046141    -4.18460959     3.20586313
H      1.50029083    -3.04817160     2.50815642
O      4.01832217    -0.17387132    -1.73749252
H      4.38706223    -0.45301895    -1.05400649
H      4.00897503     0.76909976    -1.80101664
O      0.07055166    -0.24822854     4.87620547
H     -0.66883836    -0.66950797     4.89041216
H      0.48505175    -0.48195849     5.69395153
O      1.55889460    -3.98535100    -1.84048215
H      1.00224663    -4.03642661    -1.10437957
H      1.64646744    -3.02491720    -2.00737275
O      0.13468655    -4.94095345     0.29463235
H     -0.72906819    -4.53675016     0.28730555
H      0.54021982    -4.64073646     1.18089918
O      1.43408911     3.52591670     2.70428893
H      0.96016179     3.22377450     1.97145784
H      0.99879220     3.15913184     3.52013109
O     -3.70480716     2.49815462    -1.70797727
H     -3.22729867     2.73517283    -2.56743149
H     -4.55123569     2.78426898    -1.89623634
O     -2.38959573    -0.98815916    -4.20480490
H     -2.79466842    -0.74734589    -3.31408643
H     -2.49817946    -2.05151619    -4.00794140
O     -3.73630872     2.64573140     2.66691635
H     -4.58850796     2.90104149     2.69014494
H     -3.62930790     1.80999755     2.74067369
O      0.05815722     2.45373008    -4.10793923
H      0.02386636     1.52114903    -4.10383800
H     -0.86476281     2.73432806    -4.02180836
O      4.00171008     2.40660878    -1.90788892
H      4.48840407     2.90566521    -1.07027861
H      4.51331579     2.84621315    -2.60274751
O      5.28421665    -1.27428032     0.25317314
H      4.80092437    -0.82399607     1.08406451
H      5.28246666    -2.23053192     0.38833222
72
iceIh n=24 T=50K rep=2
O      0.12922243    -0.19323145     0.41515862
H      0.22916273     0.79141731     0.53820516
H      0.60224134    -0.55141839     1.24943012
O      1.31634615    -1.31923956     2.79127847
H      0.89784304    -0.96026849     3.61704186
H      2.31392002    -0.91480762     2.63982975
O      1.36388231    -1.23575635    -1.87611373
H      0.85316358    -0.77940155    -1.07642312
H      2.36640443    -1.02194099    -1.91010218
O     -2.53354017    -1.05179588     0.39803643
H     -2.93465804    -0.76464063    -0.47608149
H     -1.48389587    -0.69039621     0.47023896
O      0.25672426     2.50129683     0.34297766
H      0.68501797     2.70978478    -0.43127152
H     -0.60488501     2.92847393     0.19773813
O     -3.70839297    -0.49766299    -1.87943049
H     -3.90597616     0.56621551    -1.75503117
H     -4.66563174    -0.78008152    -1.70395377
O     -2.50339525    -3.93786135     0.39404839
H     -3.15758590    -4.18735033    -0.49314346
H     -2.63890902    -2.86070342     0.48567018
O     -3.80750349    -0.13213865     2.57284112
H     -4.70885998    -0.39871665     2.60425333
H     -3.40946990    -0.56798387     1.79665999
O      0.01768847    -0.18514174    -3.96067982
H     -0.80701265    -0.74839724    -4.05798096
H      0.47602355    -0.53845502    -3.44838648
O      1.43574169     3.61513379    -1.96257240
H      0.96942581     3.25563019    -2.60302196
H      2.40783023     3.22952141    -1.99689913
O     -2.50285454     3.47899072     0.25139961
H     -2.92967884     3.35851461     1.04214251
H     -2.98749178     3.18661397    -0.53691562
O      4.09827427    -0.39183545     2.45209437
H      3.99215975     0.66763540     2.60973259
H      4.61308384    -0.63861903     3.34899418
O      1.54286249    -4.14063381     2.79431084
H      0.87621786    -4.15302160     3.43472439
H      1.50936474    -2.91246134     2.66270727
O      4.03463417    -0.32855108    -1.98266863
H      4.42431681    -0.41766371    -1.01854428
H      3.95836004     0.67718204    -1.90734981
O      0.06612395    -0.15019706     5.04342977
H     -0.92257203    -0.61855879     4.89222201
H      0.65131636    -0.41317738     5.66628673
O      1.44687810    -4.13793826    -1.87909909
H      1.00160010    -4.48453878    -1.17389955
H      1.36339095    -2.99197232    -1.83810840
O      0.00445641    -4.78008792     0.27120602
H     -0.87358573    -4.50568903     0.49217873
H      0.62907591    -4.44507862     1.18247932
O      1.45500008     3.52906599     2.60023132
H      1.01375980     3.34859047     1.73219003
H      1.04406525     3.09102121     3.17620847
O     -3.75258485     2.51529378    -1.90267866
H     -3.42104513     2.95832596    -2.61392189
H     -4.62899032     2.79937704    -1.93996138
O     -2.58509186    -0.94106153    -4.14679181
H     -3.08465235    -0.66140295    -3.41310854
H     -2.49915959    -1.96690888    -4.13610171
O     -3.70742100     2.52051019     2.79242152
H     -4.62924372     3.01882737     2.73190294
H     -3.71536394     1.64928116     2.77644820
O      0.05240755     2.59993651    -3.97440643
H      0.15411504     1.74481862    -4.26731598
H     -0.87394066     2.69194643    -4.12162137
O      3.97898375     2.47441094    -1.82764957
H      4.30286778     2.85428483    -1.15797700
H      4.53167283     2.73960310    -2.47982644
O      5.35216205    -1.11589292     0.37908380
H      4.90949597    -0.76929641     1.28242334
H      5.33287013    -2.04631232     0.48493453
72
iceIh n=24 T=50K rep=3
O     -0.04234631    -0.27359412     0.47253794
H      0.09731349     0.80449265     0.42676153
H      0.46698965    -0.49695829     1.28033903
O      1.21413985    -1.38262481     2.60459957
H      1.05102905    -0.95372544     3.31435746
H      2.16623643    -0.96946131     2.63413464
O      1.42827023    -1.27274113    -1.74508087
H      1.09969077    -0.92953979    -0.86793165
H      2.39033732    -1.03405429    -1.78178066
O     -2.52578942    -1.23107824     0.33427384
H     -2.94702890    -1.01611336    -0.34526981
H     -1.53866492    -0.78031269     0.30196165
O     -0.03120245     2.59243435     0.49547732
H      0.46390932     2.89345024    -0.39540973
H     -0.83576249     3.01045640     0.45951081
O     -3.66038752    -0.23277407    -1.89902023
H     -3.75936540     0.74186597    -1.84717905
H     -4.61321512    -0.49267580    -1.84605989
O     -2.50458821    -3.96816587     0.29599903
H     -2.95571418    -4.19019958    -0.46115645
H     -2.47754478    -2.88232904     0.45405832
O     -3.67774988    -0.10985170     2.71111659
H     -4.72324984    -0.39782338     2.58325759
H     -3.37139655    -0.45778397     1.84599072
O      0.14594261    -0.39831714    -4.09207552
H     -0.76486296    -0.51490942    -4.12810497
H      0.35704794    -0.46217615    -3.33004368
O      1.40153822     3.47738549    -1.76526464
H      0.84179556     3.10769781    -2.64661606
H      2.27613179     3.22084385    -1.92458993
O     -2.54328541     3.63402662     0.33759604
H     -2.97661129     3.19848549     1.07299521
H     -3.05893499     3.38486182    -0.41184957
O      4.06206943    -0.36009668     2.47918439
H      4.08776701     0.66053493     2.46898809
H      4.52913342    -0.62990857     3.21590687
O      1.56565190    -4.01127431     2.67129707
H      1.09760823    -4.40207723     3.38897241
H      1.49749458    -3.08685057     2.65914126
O      4.16206157    -0.17756505    -1.86734630
H      4.48773488    -0.49617341    -1.04287701
H      4.20892735     0.68482865    -1.98514782
O      0.18796609     0.04495843     4.93900355
H     -0.79969119    -0.28825341     4.91818652
H      0.55723663    -0.41685881     5.56941051
O      1.45840465    -4.07396107    -1.86499237
H      0.97147639    -4.26343096    -1.23044498
H      1.52330496    -3.08246322    -1.93158911
O      0.03106244    -5.03123596     0.31040611
H     -0.72916309    -4.63215501     0.47427022
H      0.57877981    -4.62611500     1.15996690
O      1.54960749     3.42580013     2.72929761
H      1.13988473     3.03125762     2.04660542
H      0.87958853     3.13479657     3.43855221
O     -3.73203850     2.39796009    -1.86082680
H     -3.31820990     2.72226472    -2.52456759
H     -4.62963847     2.45584454    -1.94616162
O     -2.34715685    -1.11638656    -3.99335096
H     -2.84602587    -0.89434171    -3.17112053
H     -2.36908675    -2.13011703    -4.02664931
O     -3.83133753     2.70329686     2.58643719
H     -4.70059930     2.78667381     2.68916050
H     -3.78409475     1.77458722     2.72001811
O      0.19879747     2.51739419    -4.16831593
H      0.05215939     1.52736520    -4.05138342
H     -0.77456026     2.73608027    -4.05018664
O      4.05933507     2.49979087    -1.87233793
H      4.51953927     3.06440730    -1.17446030
H      4.46407417     2.75904155    -2.54363862
O      5.40649517    -1.11929772     0.45131930
H      4.82949768    -0.82871804     1.13130499
H      5.26994718    -1.93288304     0.43777022
72
iceIh n=24 T=50K rep=4
O      0.01513697    -0.19429876     0.45592534
H      0.05770285     0.94255076     0.45458961
H      0.58340655    -0.65430708     1.12131693
O      1.51560755    -1.24642885     2.65589193
H      0.87208278    -0.95188540     3.23480927
H      2.23407378    -0.81863438     2.67887907
O      1.24963486    -1.36757398    -1.81351307
H      0.97108140    -1.06423051    -1.06389399
H      2.23542960    -1.00384453    -1.79322196
O     -2.33112370    -1.24295145     0.40032182
H     -3.08155692    -0.80704563    -0.13502624
H     -1.54752798    -1.15498649     0.41870628
O      0.11539386     2.53820139     0.31400018
H      0.52191696     2.78592651    -0.47530635
H     -0.76330725     3.03986982     0.38586449
O     -3.76755301    -0.45681882    -1.92555267
H     -3.70932478     0.40968409    -1.76616509
H     -4.82072471    -0.54906968    -1.86793948
O     -2.57007518    -3.87246630     0.46828847
H     -2.85247235    -4.27907340    -0.42305751
H     -2.36119269    -3.06242748     0.39620118
O     -3.73961388    -0.19390658     2.72604515
H     -4.79533770    -0.45653473     2.69831500
H     -3.44125326    -0.69985800     1.95931585
O      0.06190339    -0.21513191    -4.26254862
H     -0.72463235    -0.51869302    -4.20331611
H      0.47201042    -0.23668374    -3.50516162
O      1.37376434     3.51298868    -1.85105341
H      1.22584588     3.08346321    -2.58480417
H      2.30496239     3.14124122    -1.80439494
O     -2.60075909     3.56565040     0.41593769
H     -2.88362502     3.20014554     1.10390555
H     -2.93128437     3.09428387    -0.37646442
O      4.02559765    -0.16757510     2.63579491
H      3.90476426     0.66228876     2.67979641
H      4.34857961    -0.56617062     3.19597842
O      1.55323954    -3.93075630     2.47605028
H      1.02142056    -4.29525272     3.30022631
H      1.51383755    -3.16296399     2.56736129
O      3.84675201    -0.25660305    -1.92802707
H      4.49366215    -0.51536557    -1.14286489
H      3.85727304     0.87534949    -1.78597336
O      0.12107542    -0.28269453     4.89184959
H     -0.70055235    -0.59392860     4.99025716
H      0.54860451    -0.40760632     5.69266301
O      1.47026379    -3.97283200    -1.80930618
H      0.93404246    -4.23011060    -0.87079084
H      1.32901735    -3.09901907    -1.60883855
O      0.00808987    -4.89911743     0.39612792
H     -0.76647234    -4.53431184     0.49519328
H      0.56859703    -4.63633601     1.32457397
O      1.31533385     3.43954848     2.59484660
H      1.11127089     3.14995496     1.88279957
H      1.11557916     2.96921792     3.44030241
O     -3.59567221     2.40329589    -1.88892205
H     -3.25737418     2.66680922    -2.62182941
H     -4.60541296     2.86525571    -2.07907487
O     -2.49000263    -0.94838476    -4.16907459
H     -2.90365913    -0.85340812    -3.09352777
H     -2.39214644    -1.75736907    -4.04277305
O     -3.65304405     2.55841474     2.56353679
H     -4.61783784     2.84217662     2.70222379
H     -3.76587032     1.67376485     2.54741708
O      0.15594552     2.42565174    -4.21707214
H     -0.18286801     1.28150017    -4.15792909
H     -0.67490022     2.58153924    -4.03611238
O      3.92688905     2.60605965    -1.65758989
H      4.29420046     2.80373376    -0.95220703
H      4.26105114     2.82691244    -2.63317088
O      5.35325527    -1.00581971     0.19577200
H      4.88378220    -0.76811214     1.26650781
H      5.37005981    -1.96288209     0.31867111
72
iceIh n=24 T=50K rep=5
O      0.12369928    -0.18196125     0.33932925
H      0.15132543     0.74755652     0.31565621
H      0.50033798    -0.68907024     1.23991808
O      1.41771726    -1.06486822     2.69101421
H      0.96398618    -0.64538971     3.43163005
H      2.33358815    -0.75117199     2.85732790
O      1.43135313    -1.10526900    -1.86759779
H      0.94312985    -0.61047061    -1.03290125
H      2.21861923    -0.75911399    -1.72405166
O     -2.48187194    -1.19664540     0.50222116
H     -2.89642547    -0.88076249    -0.31430453
H     -1.59378288    -0.94650371     0.39309163
O      0.10325804     2.55331048     0.35298456
H      0.56175390     2.75402365    -0.42894508
H     -0.70855166     2.92221871     0.35131274
O     -3.70660522    -0.33035707    -1.93744769
H     -3.58211860     0.65356473    -1.75876349
H     -4.63280829    -0.52688292    -1.91586426
O     -2.37029616    -3.91980285     0.48251214
H     -2.95578481    -4.27881837    -0.45463351
H     -2.43129313    -3.04120025     0.38018935
O     -3.66745659    -0.19190168     2.52632729
H     -4.58929827    -0.52050611     2.58667423
H     -3.23090319    -0.63209575     1.86545621
O      0.06948399    -0.09437833    -4.17940170
H     -0.81369499    -0.31674502    -3.99061590
H      0.42929273    -0.36847853    -3.42572074
O      1.43895658     3.47464194    -1.90226010
H      1.15096236     3.09100319    -2.73984497
H      2.45855727     3.18429769    -1.89029992
O     -2.43818490     3.71202298     0.44515459
H     -2.74018172     3.37417362     1.18293696
H     -2.93981086     3.22323140    -0.41791336
O      4.07269522    -0.16430183     2.55877928
H      4.08300655     0.70831429     2.67972880
H      4.46306551    -0.43726429     3.42523654
O      1.48670186    -4.01987484     2.61093206
H      0.93707214    -4.24292391     3.40196657
H      1.46546772    -2.91172555     2.61648460
O      4.14090042    -0.27605391    -1.79075477
H      4.62416559    -0.51042223    -0.99719054
H      4.05711759     0.65206254    -1.80405996
O      0.17423780    -0.36274789     4.90617559
H     -0.72451277    -0.75892291     5.05313458
H      0.66049651    -0.63550472     5.67784515
O      1.51016063    -3.94391116    -1.70086973
H      1.10600970    -4.20734934    -1.00768643
H      1.46528189    -2.91601130    -2.04051882
O      0.20922887    -5.02168367     0.29213862
H     -0.71470233    -4.53681536     0.33622556
H      0.54269229    -4.50900567     1.21088574
O      1.45106790     3.30691573     2.67003798
H      1.01717314     2.95985505     1.91443699
H      0.94540943     2.95096867     3.52145263
O     -3.76224830     2.56921352    -1.84225269
H     -3.36406873     2.80496319    -2.74139191
H     -4.61353346     2.77162217    -1.93850278
O     -2.41343659    -1.17635039    -4.15678122
H     -2.76485498    -0.96570622    -3.44259197
H     -2.36463149    -2.08973304    -4.09970263
O     -3.67386386     2.65893165     2.70951832
H     -4.54992631     2.76136192     2.64038211
H     -3.69711037     1.73309427     2.72309881
O      0.16972851     2.48721916    -4.17257417
H      0.15476377     1.65732577    -4.34668043
H     -0.64609064     2.75845499    -4.07393998
O      4.05202461     2.60277941    -1.86066973
H      4.48485223     2.88127412    -1.09706959
H      4.43156944     2.83508760    -2.67601686
O      5.39439984    -1.12780512     0.24887988
H      5.03774771    -0.83462567     1.15437952
H      5.30479029    -2.01980216     0.41518592
72
iceIh n=24 T=150K rep=0
O      0.02790122    -0.15157688     0.43504262
H      0.06703001     0.67085081     0.44739854
H      0.50162079    -0.49837996     1.23970150
O      1.26257189    -1.20020451     2.68218763
H      0.90111288    -0.77964070     3.43257516
H      2.25194235    -0.86418548     2.78123931
O      1.33164596    -1.26511138    -1.98798041
H      0.88280689    -0.97158050    -1.07328204
H      2.16816224    -0.75313384    -1.83231512
O     -2.54689013    -1.27313205     0.44838515
H     -2.95624642    -0.91203915    -0.38080414
H     -1.66813331    -0.80050063     0.48062956
O      0.28505662     2.47389526     0.57836908
H      0.68104773     2.81120881    -0.23142639
H     -0.59362863     2.83702531     0.56117563
O     -3.73034051    -0.17722577    -1.92452286
H     -3.78860859     0.71737286    -2.02247950
H     -4.62210852    -0.57269633    -1.99884323
O     -2.29211014    -3.90241415     0.53027985
H     -2.86826672    -4.08833205    -0.28517015
H     -2.39215699    -2.90125103     0.47263631
O     -3.70902946    -0.18000530     2.61553441
H     -4.58248008    -0.56752915     2.61702035
H     -3.33696170    -0.59614189     1.81405702
O      0.14562771    -0.27009402    -4.08031993
H     -0.86519460    -0.58515321    -4.05503357
H      0.59262496    -0.57205394    -3.32596321
O      1.56187959     3.57367282    -1.82163509
H      0.93855388     3.12817122    -2.47494521
H      2.43505059     3.27047971    -2.02494524
O     -2.35269884     3.50831756     0.41364962
H     -2.78422293     3.20797445     1.21075478
H     -2.87959927     3.14573979    -0.30591712
O      4.06983688    -0.17522346     2.57964769
H      4.15639260     0.78531015     2.49630323
H      4.27499788    -0.42039749     3.45913680
O      1.49101239    -4.03830016     2.65269904
H      0.98014892    -4.40305052     3.40139261
H      1.42116589    -3.04777325     2.82113794
O      4.01365036    -0.24700975    -1.96503006
H      4.41460838    -0.55022835    -1.19177860
H      4.07632251     0.74218157    -1.86223715
O      0.10161043    -0.31656058     4.70576984
H     -0.70478268    -0.44757063     4.65497347
H      0.55133285    -0.47908604     5.46694620
O      1.43844593    -3.92580804    -1.86142252
H      1.12772197    -4.27022821    -1.10193506
H      1.44867412    -2.94356909    -1.83777959
O      0.19178035    -4.93957134     0.38696141
H     -0.66536229    -4.53762199     0.26654121
H      0.59331115    -4.64376254     1.15359420
O      1.42552802     3.50673082     2.72418773
H      0.78897368     3.12365138     1.95734744
H      1.13274643     3.18995088     3.46904337
O     -3.67274861     2.47790823    -1.90494708
H     -3.38736190     2.80884327    -2.70844625
H     -4.57832598     2.89310352    -1.83141142
O     -2.54644583    -1.01380036    -4.15874716
H     -2.96478729    -0.69392297    -3.27495678
H     -2.49663734    -1.97004584    -4.12227808
O     -3.77746604     2.42044547     2.67946721
H     -4.63208234     2.80745925     2.78444738
H     -3.81284497     1.60977950     2.71192326
O      0.23154616     2.34200012    -4.06249064
H      0.20412555     1.37820537    -4.06521366
H     -0.69775184     2.66400797    -4.09073665
O      3.95328139     2.52744320    -1.92928212
H      4.37648763     2.88684294    -1.17947662
H      4.44388995     2.91148505    -2.68917134
O      5.31297028    -1.25582015     0.41537059
H      4.85299441    -0.91657908     1.17291122
H      5.38567822    -2.18343652     0.40710437
72
iceIh n=24 T=150K rep=1
O      0.21059806    -0.12882282     0.33647532
H      0.10195884     0.86728189     0.41099298
H      0.66862662    -0.43058417     1.14663688
O      1.45865730    -1.28045333     2.58947171
H      0.98646416    -0.96091074     3.35729292
H      2.28530141    -0.95105636     2.69959139
O      1.35156850    -1.22297650    -1.78614792
H      1.11354159    -0.85768631    -0.93482282
H      2.20798002    -0.90258547    -1.89972420
O     -2.63061347    -1.08498787     0.29486798
H     -3.02856093    -0.80165953    -0.41406309
H     -1.74399152    -0.86451340     0.29534358
O      0.14805936     2.40590585     0.47177212
H      0.48475876     2.80644630    -0.34271854
H     -0.61350942     2.78654323     0.42018346
O     -3.74194519    -0.14128715    -1.92311166
H     -3.79694546     0.78556249    -1.92261491
H     -4.66055962    -0.49053305    -1.80455666
O     -2.45861567    -3.93456018     0.48590608
H     -2.84884844    -4.21214057    -0.35263897
H     -2.41850513    -2.98529840     0.43930350
O     -3.83665017    -0.24860040     2.55758718
H     -4.87917803    -0.61731512     2.60263803
H     -3.41145727    -0.58697828     1.75150310
O      0.19883305    -0.14755381    -4.08995339
H     -0.69627593    -0.52251951    -4.06298228
H      0.57431358    -0.57887861    -3.26418836
O      1.42982816     3.35897103    -1.86826991
H      1.09193067     2.97863509    -2.65376982
H      2.42129451     3.04988445    -1.77824539
O     -2.39641393     3.50505018     0.39257975
H     -2.72251275     3.09459928     1.13910277
H     -2.89729436     3.10888177    -0.31483924
O      3.94104148    -0.34909613     2.69921007
H      3.94672221     0.54878136     2.65816009
H      4.42837560    -0.67175974     3.43905395
O      1.34456029    -3.85908576     2.67651805
H      1.04552809    -4.22969985     3.41519224
H      1.52224271    -2.97949285     2.51758669
O      3.92867570    -0.19638123    -1.96647155
H      4.47631313    -0.42351049    -1.11639114
H      3.89864447     0.74992865    -1.88146369
O     -0.05502574    -0.19249731     4.86200711
H     -0.90232302    -0.43038761     4.98889784
H      0.43220461    -0.42841842     5.75461033
O      1.50825218    -4.08176534    -1.72239492
H      1.03986798    -4.35194404    -0.97929642
H      1.48066331    -3.11461148    -1.79228816
O      0.20158614    -4.96895788     0.29859925
H     -0.87283667    -4.66430972     0.49588651
H      0.60328220    -4.64421557     1.12281097
O      1.52559964     3.37163681     2.75296859
H      0.95608760     3.06855580     1.99652479
H      1.11429088     2.99220994     3.45645272
O     -3.68209594     2.59544412    -1.63281747
H     -3.35639098     2.82808412    -2.46634233
H     -4.61028453     2.81581947    -1.75717481
O     -2.55582946    -0.96626511    -4.06771301
H     -2.96480229    -0.68155967    -3.22180145
H     -2.72833902    -1.80218754    -4.06395910
O     -3.72850345     2.70969416     2.65027333
H     -4.70796413     2.95287603     2.71382261
H     -3.85909632     1.73545199     2.67208549
O      0.24013626     2.53397797    -4.06669120
H      0.12609955     1.61590194    -4.16130932
H     -0.64799558     2.81354529    -4.00403202
O      4.06355781     2.42763911    -1.78969332
H      4.49063315     2.78107511    -1.06941930
H      4.49837989     2.79812193    -2.64540401
O      5.38357785    -1.18065651     0.39619457
H      4.85581005    -0.86505064     1.21727839
H      5.41079700    -2.13656032     0.50400082
72
iceIh n=24 T=150K rep=2
O      0.06884091    -0.31876544     0.57832036
H      0.09103423     0.76079422     0.42136506
H      0.62250786    -0.49543846     1.05267829
O      1.44565981    -1.32946799     2.75572361
H      0.85905166    -1.11095315     3.43619814
H      2.27684442    -0.83639952     2.68202596
O      1.43776935    -1.25082048    -1.87576958
H      1.00255868    -0.86662840    -1.07358253
H      2.27573514    -0.81417220    -2.01209411
O     -2.41143540    -1.12410206     0.40475062
H     -2.87830016    -0.74787970    -0.32001974
H     -1.65564923    -1.00724924     0.37289027
O      0.06941321     2.60653332     0.29570141
H      0.50516205     2.87050107    -0.53453064
H     -0.66489194     2.90486741     0.31352829
O     -3.68596455    -0.20727911    -1.71631924
H     -3.77612550     0.84698496    -1.63622996
H     -4.62298127    -0.59241790    -1.97179686
O     -2.32570814    -3.90092736     0.59895876
H     -2.76787854    -4.18644827    -0.18438347
H     -2.46709703    -2.98343906     0.50353627
O     -3.83676397    -0.24204549     2.77444137
H     -4.79776935    -0.66017616     2.54560568
H     -3.25941357    -0.68420633     2.15327816
O      0.08814481    -0.22237676    -3.99110644
H     -0.81293623    -0.42490611    -4.00860531
H      0.49159386    -0.76056012    -3.20472817
O      1.43665822     3.37176473    -1.78068471
H      0.98737783     3.15739419    -2.53038766
H      2.27519081     3.14027847    -1.87941812
O     -2.28061450     3.65345783     0.53037804
H     -2.91764142     3.21307977     1.13240055
H     -2.87630341     3.22309931    -0.40105023
O      3.91795500    -0.26474778     2.76111023
H      4.03448489     0.60774388     2.64228660
H      4.51967244    -0.59234180     3.47855993
O      1.58454973    -4.09839420     2.77297467
H      0.96145200    -4.26284990     3.64021239
H      1.61758792    -3.01206200     2.83053005
O      3.93466951    -0.17544761    -1.86537433
H      4.38789623    -0.51779984    -1.05835633
H      4.03229403     0.62820778    -1.97062901
O      0.18497464    -0.27638398     4.84118300
H     -0.77681693    -0.50111026     4.79340519
H      0.35429746    -0.36552636     5.66239876
O      1.37698588    -3.94039944    -2.04843198
H      1.04451218    -4.26107730    -1.29291208
H      1.41599021    -3.00719311    -1.96071556
O      0.10970188    -4.78877794     0.52916158
H     -0.76045185    -4.46917393     0.38890670
H      0.59321080    -4.31416510     1.22457665
O      1.53949830     3.51445407     2.59203363
H      1.10304387     3.23129506     1.90145685
H      0.96861670     3.16830842     3.26023646
O     -3.90394688     2.57434029    -1.68183975
H     -3.34651955     2.98986497    -2.48334355
H     -4.87784732     2.96816588    -1.78741239
O     -2.38662393    -1.13983506    -4.05175121
H     -2.83380257    -0.99245872    -3.31737729
H     -2.50918271    -2.06125154    -4.12227277
O     -3.79784773     2.67245225     2.79842135
H     -4.80850087     2.85803951     2.65126134
H     -3.78243760     1.77694576     2.68522493
O      0.18617182     2.53336787    -3.95250138
H      0.26129180     1.73453861    -3.91684738
H     -0.76857249     2.73417331    -4.14021358
O      3.98510883     2.50909684    -2.09990436
H      4.54089454     2.88082769    -1.35902122
H      4.31135652     2.66299810    -2.86071306
O      5.32657415    -1.08240906     0.34472872
H      4.76476727    -0.82161666     1.24542006
H      5.46580250    -1.99804281     0.45457328
72
iceIh n=24 T=150K rep=3
O      0.01612424    -0.21333154     0.30388231
H      0.02366503     0.72904461     0.43832549
H      0.46258747    -0.46011782     1.26626385
O      1.28163831    -1.21612609     2.63267626
H      1.06242795    -0.72470928     3.26684006
H      2.08756622    -0.80909351     2.50396835
O      1.45450593    -1.25077912    -2.00807137
H      0.84855000    -0.96668044    -1.25919976
H      2.18609039    -0.78356105    -1.99071069
O     -2.69889726    -1.02318354     0.54808993
H     -2.97899672    -0.85628523    -0.50997510
H     -1.82055173    -0.69969236     0.62208336
O      0.12039805     2.46571954     0.49911996
H      0.51647623     2.69007516    -0.30438406
H     -0.83442682     2.81002621     0.32023561
O     -3.91979750    -0.30616286    -1.83796109
H     -3.75167864     0.55829778    -1.80433688
H     -4.73624026    -0.59319835    -1.73056122
O     -2.49572016    -3.82087798     0.45741172
H     -2.91477925    -4.16822345    -0.29743949
H     -2.47933883    -2.87507078     0.41987496
O     -3.76476947    -0.16437863     2.65346247
H     -4.71204685    -0.42799168     2.65408876
H     -3.33869571    -0.48873172     1.80808617
O      0.06378619    -0.17048264    -4.20981913
H     -0.83698142    -0.42010176    -4.04061865
H      0.48058824    -0.45410568    -3.32855808
O      1.43929132     3.30944103    -1.89818360
H      0.94812958     3.05811523    -2.73742286
H      2.23502755     3.17501589    -1.98637653
O     -2.45386814     3.33240919     0.49908986
H     -2.91892025     3.17006765     1.10846965
H     -2.91253699     2.92932959    -0.21193286
O      3.94727281    -0.06179483     2.56412453
H      3.94304652     0.93930390     2.60228231
H      4.44671023    -0.23221046     3.46078744
O      1.55707077    -3.88743026     2.59063257
H      1.04470754    -4.17375206     3.32183709
H      1.54909239    -2.98289452     2.52302122
O      4.08885844    -0.14995964    -1.88174409
H      4.64136443    -0.50492014    -0.96366521
H      4.12244726     0.83874533    -1.76094858
O      0.04643804    -0.19605318     4.87360425
H     -0.89814426    -0.50455451     4.72082503
H      0.23057170    -0.54570880     5.61271856
O      1.33235453    -3.93290621    -1.86967810
H      0.89358204    -4.20483306    -1.13785352
H      1.38167510    -2.94208851    -2.00573458
O      0.25141589    -4.94111399     0.26246926
H     -0.78337159    -4.74364331     0.33541332
H      0.64610652    -4.54291340     1.06898477
O      1.58149788     3.35195377     2.66176324
H      1.07546551     3.06429847     1.98862828
H      1.14338432     3.02204155     3.48442986
O     -3.71819908     2.37636208    -1.83041327
H     -3.38745680     2.81897972    -2.60104587
H     -4.61527715     2.65867156    -1.80320283
O     -2.50424503    -1.29117434    -4.18121606
H     -2.90249680    -0.87846703    -3.33593396
H     -2.63327880    -2.17959886    -4.00289881
O     -3.69677002     2.70487470     2.61144371
H     -4.63185248     2.96350856     2.62508292
H     -3.66571762     1.70879140     2.66486166
O      0.22489847     2.50796195    -4.36702297
H      0.26326429     1.65906965    -4.14660230
H     -0.73071106     2.93825406    -4.28636394
O      3.93322177     2.49763546    -1.86908636
H      4.34949413     2.84879478    -1.05949153
H      4.40113300     2.69912561    -2.48542703
O      5.23117326    -1.23960843     0.21406398
H      4.99432273    -0.78763933     1.13860559
H      5.36297017    -2.22083661     0.39712607
72
iceIh n=24 T=150K rep=4
O      0.16137959    -0.14833356     0.21019419
H      0.20004271     0.70383720     0.26607431
H      0.58252302    -0.49701183     1.15017316
O      1.46625115    -1.26502885     2.66467790
H      1.04630016    -0.86092394     3.48144576
H      2.23780877    -0.83969792     2.87727458
O      1.35209562    -1.15213355    -1.88767145
H      0.95106922    -0.72345651    -1.17618904
H      2.31085026    -0.77258823    -1.77719781
O     -2.71100195    -1.21505975     0.34233019
H     -3.09463484    -0.99331884    -0.60275077
H     -1.69569177    -1.01550523     0.29743508
O      0.26130282     2.43216587     0.31638493
H      0.70905080     2.94195455    -0.44496064
H     -0.67740558     2.79423656     0.34735761
O     -3.70669993    -0.21117026    -1.94248943
H     -3.74761513     0.77487859    -1.88619497
H     -4.54805603    -0.45826892    -1.70202517
O     -2.47436014    -3.82800948     0.59317839
H     -2.89197184    -4.06131290    -0.39439025
H     -2.33213609    -2.78490738     0.29992966
O     -3.77383691     0.01848717     2.71588824
H     -4.72393438    -0.35131810     2.46698814
H     -3.39904304    -0.67422903     1.87736090
O      0.06916898    -0.13870570    -4.24013074
H     -0.63022062    -0.51478214    -3.95668618
H      0.53368043    -0.51994438    -3.29090428
O      1.49647908     3.56646755    -1.92795598
H      1.04536889     3.09917304    -2.64545013
H      2.27098074     3.18740588    -1.83631806
O     -2.37491511     3.54232973     0.49258043
H     -2.91181364     3.10168111     1.30282278
H     -2.96078131     3.14021483    -0.38113032
O      4.07085293    -0.37501935     2.68678552
H      3.97222297     0.40652387     2.71080640
H      4.55624269    -0.70942452     3.44776927
O      1.32167093    -3.91486365     2.56056926
H      0.94677153    -4.24857210     3.37011747
H      1.51355706    -3.02031981     2.41837424
O      4.06676913     0.00159285    -1.81902600
H      4.39121437    -0.53812123    -1.06466886
H      4.10978969     0.78155104    -2.02263619
O      0.07683855    -0.04017338     4.87647258
H     -0.81644608    -0.53006245     4.79258866
H      0.58584089    -0.63230659     5.73018692
O      1.48194288    -3.97258060    -1.99412695
H      0.82919340    -4.25613873    -1.25211161
H      1.40166715    -2.92110401    -1.88698040
O      0.21151141    -4.78217532     0.43577617
H     -0.69468548    -4.54123071     0.48809577
H      0.75065355    -4.37304616     1.11353126
O      1.37142261     3.54504895     2.53064657
H      0.87944888     3.04842285     1.88896329
H      0.85001646     3.10226286     3.38688430
O     -3.68922648     2.41455433    -1.63998998
H     -3.23615145     2.74937863    -2.43583321
H     -4.56130164     2.81933178    -1.80593098
O     -2.40054990    -1.26646418    -4.12524627
H     -2.88671201    -0.92666969    -3.63702161
H     -2.26101180    -2.15440771    -4.16398560
O     -3.54738414     2.64056987     2.73932928
H     -4.38196100     2.95690959     2.78598650
H     -3.75198054     1.59617291     2.70350487
O      0.19578263     2.66993423    -3.93809968
H      0.02264469     1.67157629    -3.99799436
H     -0.81236749     2.80215590    -4.00412674
O      4.19541232     2.45915992    -1.80047553
H      4.52751534     2.92886241    -0.92270899
H      4.59875562     2.75156405    -2.50155558
O      5.42383442    -1.16292451     0.38914442
H      4.74691105    -0.94724298     1.12004194
H      5.22103831    -2.02295421     0.59630468
72
iceIh n=24 T=150K rep=5
O     -0.03754260    -0.19468293     0.29494579
H      0.00731528     0.61394430     0.39641732
H      0.41318598    -0.58878284     1.10409573
O      1.48040365    -1.08111115     2.53108983
H      0.89600681    -0.75604216     3.27669702
H      2.32601354    -0.82612192     2.73572557
O      1.54816054    -1.29227347    -1.77530155
H      1.23666996    -1.01653187    -1.00432274
H      2.40581560    -0.88702383    -1.80768494
O     -2.42818134    -1.24242693     0.38157640
H     -2.86315646    -0.89948673    -0.33432678
H     -1.60100709    -0.98492678     0.43900411
O      0.26544096     2.56282051     0.49662085
H      0.72297885     2.78692919    -0.38053614
H     -0.62725932     2.92003954     0.36410682
O     -3.77430885    -0.20712367    -1.97581347
H     -3.94819848     0.69457365    -1.90446676
H     -4.83300364    -0.49853567    -1.95149125
O     -2.41776187    -3.88710730     0.36137370
H     -2.99361272    -4.16971849    -0.36640852
H     -2.33412814    -2.91431285     0.25219692
O     -3.76823658    -0.19707300     2.75652698
H     -4.68353761    -0.54524799     2.70463772
H     -3.37596267    -0.50046224     1.88829211
O      0.12539814    -0.18483143    -4.28158345
H     -0.77607626    -0.51489838    -4.24705887
H      0.45130867    -0.45139860    -3.45568907
O      1.34942762     3.48416934    -1.89099194
H      1.00463102     3.08134986    -2.55316901
H      2.29367974     3.09318905    -1.85028477
O     -2.42120467     3.42840870     0.31812528
H     -2.92805073     3.16910651     1.06285820
H     -2.93778936     3.18197550    -0.44263325
O      4.02169298    -0.20792411     2.51347579
H      4.00701394     0.70546476     2.64997509
H      4.67222122    -0.51895610     3.23030947
O      1.52973643    -3.94222840     2.74810368
H      1.00973039    -4.24381275     3.47218667
H      1.53080986    -3.01370552     2.74286291
O      3.97188423    -0.22786973    -1.85300224
H      4.49201867    -0.47230773    -0.98463932
H      4.04593058     0.72439497    -1.80976054
O      0.01825692    -0.23788402     4.80665085
H     -0.72986117    -0.49315436     4.91522685
H      0.58901010    -0.52448180     5.48617791
O      1.35512946    -4.04312572    -1.96749769
H      0.88140116    -4.29229448    -1.14409687
H      1.35450770    -3.10985371    -1.85798242
O      0.13266577    -4.87506088     0.33002548
H     -0.74893180    -4.47185698     0.39778811
H      0.55197766    -4.50867518     1.05952472
O      1.54354704     3.50418181     2.74708347
H      0.98568363     3.19092605     2.00010318
H      0.87747320     3.26669544     3.41434645
O     -3.64449695     2.44344948    -1.82008122
H     -3.30688665     2.77548316    -2.62110546
H     -4.56507671     2.90701764    -1.80444744
O     -2.52846723    -1.07625201    -4.23815676
H     -2.90329368    -0.79220795    -3.32021926
H     -2.54859571    -2.07511046    -4.03105716
O     -3.79234777     2.57814300     2.83677782
H     -4.69362038     2.79572075     2.77245205
H     -3.81592967     1.62676439     2.83198609
O      0.38634765     2.52983395    -4.08725403
H      0.12343496     1.52952588    -4.18275497
H     -0.55083768     2.97646107    -4.21389629
O      3.95034566     2.59914115    -1.84010389
H      4.46416673     2.85897358    -0.96608675
H      4.48158291     2.89740929    -2.52997489
O      5.28384649    -1.14996093     0.34922629
H      4.81577799    -0.87389325     1.22716611
H      5.16440633    -2.10072992     0.45951721
36
iceXI n=12 T=50K rep=0
O     -0.18126782     0.91792382     0.24964106
H     -0.12223715     1.83661718     0.64179135
H     -0.86553562     0.44893411     0.62713218
O      0.08008646     3.57350012     1.16952311
H     -0.73752048     3.96922665     0.83378931
H     -0.03737630     3.59494983     2.19655102
O     -0.22630106     1.00246101    -2.50308738
H     -0.13142477     0.96326661    -1.62098170
H      0.61475827     0.55196996    -2.82082319
O     -2.27730308    -0.32781501     1.31361396
H     -3.08836068     0.15576932     0.90790725
H     -2.38140792    -1.24929206     0.92874273
O      2.09066316    -0.37737926     1.36103043
H      1.33313240     0.06457945     1.02464405
H      2.14891630    -1.18220674     1.01046927
O      2.17875183    -0.34477603    -3.30590966
H      2.20564336    -0.38282511    -4.25050827
H      2.96860348     0.10005712    -2.92120803
O     -2.41533142    -2.96727824     0.25107200
H     -3.19129683    -3.26315316     0.69413315
H     -2.44628202    -2.82955124    -0.61346083
O      2.21427850    -2.80973033     0.30754317
H      1.54083372    -3.34148283     0.69009296
H      2.08137310    -2.89499788    -0.65073117
O     -2.42685589    -0.25856780    -3.41846436
H     -1.58052463     0.09423051    -3.07434615
H     -2.28373383    -0.26396973    -4.37586080
O     -4.65608230     1.11009923     0.14522853
H     -5.41676523     0.60313232     0.57060707
H     -4.67562977     1.94370386     0.48441417
O      4.44840817     1.06246222     0.29354479
H      3.66786126     0.55958298     0.68174713
H      4.36649073     1.96116881     0.68525114
O      2.09596365    -0.24822376     4.03058045
H      2.16016713    -0.52640901     3.00762962
H      2.77532051     0.29899243     4.21777500
36
iceXI n=12 T=50K rep=1
O     -0.22298180     0.89213319     0.34074281
H     -0.28364498     1.59058966     0.70943155
H     -0.98305172     0.26417893     0.73825449
O      0.00569995     3.74227593     1.10783633
H     -0.90014410     4.32138115     1.08445377
H     -0.08906455     3.56617278     2.27338632
O     -0.26011097     1.01746801    -2.38220244
H     -0.09840731     0.98766106    -1.48459857
H      0.70880793     0.46971939    -2.65470041
O     -2.34506214    -0.43211401     1.15965521
H     -3.24052339    -0.05479175     1.05754385
H     -2.38963400    -1.23276869     0.81015679
O      2.13640286    -0.19651128     1.30009831
H      1.28985437    -0.00029172     0.91743627
H      2.05384312    -1.19090380     0.98554045
O      2.14719466    -0.57353326    -3.43582084
H      2.18948794    -0.29452161    -4.23967496
H      2.83938482     0.21810102    -3.15674908
O     -2.49067039    -2.92060540     0.42065076
H     -3.23059833    -3.30908640     0.71097680
H     -2.28126582    -2.99607616    -0.58906429
O      2.33394531    -2.91604598     0.19871464
H      1.36906774    -3.40821699     0.59765171
H      2.08384403    -3.11220401    -0.63751877
O     -2.52211513    -0.31154578    -3.22986941
H     -1.66259066     0.12094608    -2.91757130
H     -2.32041714    -0.37812897    -4.18615041
O     -4.69917580     0.86337770     0.35809306
H     -5.37953615     0.50134077     0.53118474
H     -4.61908972     1.65009189     0.53891287
O      4.37701853     1.01920097     0.43002684
H      3.62422512     0.47311598     0.55567111
H      4.44061454     1.93733201     0.83212030
O      2.26732358    -0.19487129     4.13266009
H      2.20622734    -0.30429003     3.06160795
H      3.04186526     0.13350051     4.35868209
36
iceXI n=12 T=50K rep=2
O      0.16720213     0.85961112     0.36680433
H     -0.06341825     1.82420397     0.77611553
H     -0.78821871     0.53569830     0.62934062
O     -0.08047665     3.39585355     1.20905434
H     -0.75013422     3.89799587     0.94683389
H     -0.03474931     3.48958968     2.10309601
O     -0.17620698     0.93102376    -2.48392648
H     -0.12970022     0.86727137    -1.55030929
H      0.66331077     0.55676243    -2.77885468
O     -2.25627729    -0.34693896     1.31289858
H     -3.10409516    -0.09861108     1.14660450
H     -2.20729814    -1.11938536     0.96841426
O      2.20025008    -0.26745286     1.22063356
H      1.24143406     0.11787169     0.95594067
H      2.13870307    -1.15650136     0.97353471
O      2.07636898    -0.22542561    -3.37737687
H      2.15752868    -0.42403408    -4.26211049
H      2.93654339     0.27564376    -3.10752560
O     -2.36154809    -2.82260557     0.53729688
H     -3.17800093    -3.33573043     0.72488546
H     -2.36455029    -2.84259102    -0.38939495
O      2.21313357    -2.93913246     0.32815816
H      1.46330003    -3.36110169     0.71988915
H      2.24702482    -2.99599866    -0.55084656
O     -2.42650028    -0.25391136    -3.29676342
H     -1.55066947     0.25550535    -3.08853018
H     -2.38339866    -0.23614054    -4.33936206
O     -4.72087522     0.99527515     0.46840279
H     -5.44948681     0.59520313     0.80903154
H     -4.69726406     1.79260221     0.72424202
O      4.51088011     0.87654308     0.31970055
H      3.72182014     0.58041633     0.63653362
H      4.33794692     1.87645693     0.58772220
O      2.11401125    -0.43837100     3.98846185
H      2.10481613    -0.45336560     3.06321158
H      2.83529940    -0.02332672     4.24995808
36
iceXI n=12 T=50K rep=3
O      0.02939619     0.85876672     0.45362164
H     -0.07203497     1.75212397     0.66704662
H     -0.71294955     0.53264280     0.62093810
O     -0.20889366     3.29355919     1.15061536
H     -1.03348369     3.81093002     0.79309728
H     -0.14869837     3.25268699     2.09580102
O     -0.12819476     1.08732829    -2.34800487
H     -0.12857027     1.05178683    -1.37500466
H      0.57230545     0.65267596    -2.73363026
O     -2.48121435    -0.17199513     1.32055376
H     -3.17454101     0.18930757     0.93849408
H     -2.39635055    -1.07286002     1.04906342
O      2.08816065    -0.42845982     1.25288746
H      1.25621383     0.15570054     0.93178077
H      2.08953501    -1.17496840     0.81771843
O      2.16836495    -0.52559475    -3.36394845
H      2.12231756    -0.31422952    -4.24063742
H      2.90865829     0.02049057    -3.06461020
O     -2.35981146    -2.91537463     0.31458802
H     -3.07403894    -3.22069293     0.65937642
H     -2.39285068    -2.84445554    -0.56004661
O      2.10884105    -2.93027291     0.36885626
H      1.28217047    -3.46795357     0.71986519
H      2.13221041    -2.99283011    -0.52473327
O     -2.44723595    -0.36785630    -3.40456349
H     -1.61022117     0.04904511    -3.10269845
H     -2.50136500    -0.34425458    -4.21175201
O     -4.61441593     0.95010274     0.23353094
H     -5.55781241     0.35628729     0.74980465
H     -4.69249685     1.62387687     0.55668800
O      4.64073541     1.08542035     0.40037870
H      3.61360074     0.49697687     0.67887122
H      4.42162697     1.86096533     0.72436803
O      2.08796183    -0.35472174     4.27317459
H      2.10465900    -0.60625232     3.23320971
H      2.84503149     0.45411212     4.26002534
36
iceXI n=12 T=50K rep=4
O     -0.02151992     0.98994187     0.20737042
H     -0.28003933     1.86041189     0.69551429
H     -0.85037198     0.47267229     0.57286451
O     -0.11724025     3.45154140     1.31923776
H     -0.80137672     3.87565528     0.91084664
H     -0.06213589     3.50401654     2.14093344
O     -0.15535146     0.83131926    -2.43023540
H     -0.09173487     0.84212983    -1.53026820
H      0.73631827     0.27757202    -2.59286349
O     -2.38936347    -0.44957872     1.16335208
H     -3.21645477     0.09670375     0.95647091
H     -2.42990344    -1.23749220     0.86978680
O      2.16497007    -0.37898786     1.44613291
H      1.21315846     0.04304698     1.18828784
H      2.02376548    -1.18687289     0.97534145
O      1.94150877    -0.29972309    -3.37134516
H      2.00105278    -0.41209686    -4.30841147
H      2.76942112     0.00529838    -3.10631193
O     -2.40475729    -2.96768992     0.47676737
H     -3.11852623    -3.45861503     0.57246051
H     -2.49270641    -3.04325885    -0.66442206
O      2.14242539    -2.94832111     0.48730852
H      1.32585120    -3.33430986     0.69641219
H      2.16659995    -2.97132253    -0.43677709
O     -2.40216976    -0.56232436    -3.45414681
H     -1.55592671    -0.07900408    -3.06883360
H     -2.32357782    -0.46409703    -4.27925247
O     -4.61887409     0.75103478     0.39645447
H     -5.45408378     0.40664117     0.63189070
H     -4.53886090     1.67309774     0.55901290
O      4.38781350     0.93242195     0.19376299
H      3.61789911     0.50925412     0.51331353
H      4.24846240     1.91676694     0.54355310
O      2.00651633    -0.47981545     3.94896339
H      2.05328770    -0.44290962     3.04746435
H      2.75569871    -0.07495368     4.36690264
36
iceXI n=12 T=50K rep=5
O      0.01477951     1.01513638     0.26938423
H     -0.11615488     1.98074921     0.43024261
H     -0.81267984     0.59769234     0.60688640
O     -0.06540800     3.60437573     1.33112793
H     -0.80145651     3.97266964     0.99526919
H     -0.05236014     3.58022766     2.21270739
O     -0.19304609     1.02095558    -2.55200532
H     -0.05881173     0.78236994    -1.59215395
H      0.63470643     0.60186602    -2.91961099
O     -2.30147202    -0.37687506     1.29623512
H     -3.06919163     0.06208354     0.94187798
H     -2.28278217    -1.19636114     0.86670132
O      2.15964706    -0.43612269     1.25332765
H      1.32449714     0.01562632     0.91262560
H      2.29988421    -1.21817668     1.08774138
O      2.00813084    -0.51248229    -3.42701465
H      2.33437598    -0.51953437    -4.23316521
H      2.82394254    -0.08946705    -3.07556606
O     -2.26608649    -2.82650966     0.35965470
H     -3.08612347    -3.31095066     0.80135077
H     -2.42428441    -3.11582245    -0.60407638
O      2.33281924    -2.95755806     0.24482052
H      1.55952732    -3.29796243     0.52358335
H      2.25917751    -2.95917185    -0.66831803
O     -2.28516262    -0.28512286    -3.30472482
H     -1.49107508     0.08236895    -2.99686591
H     -2.02736231    -0.46136586    -4.25927220
O     -4.50920557     0.86857369     0.37042877
H     -5.40716737     0.48843634     0.55238021
H     -4.46520665     1.88305424     0.78030999
O      4.40708106     0.85980272     0.54595297
H      3.54387415     0.56107393     0.76902885
H      4.28691977     1.77311554     0.77348149
O      1.92417030    -0.30950078     4.13332134
H      2.07138403    -0.18642134     3.08785468
H      2.81605908     0.23234530     4.30927764
36
iceXI n=12 T=150K rep=0
O      0.03753799     0.88841012     0.29467551
H     -0.23195326     1.74628523     0.62569528
H     -0.75889837     0.45999150     0.61892513
O     -0.11572464     3.48579153     1.09683084
H     -0.78814135     3.83900025     0.83974572
H     -0.10390130     3.51858146     2.02200921
O      0.08873988     0.90738353    -2.63985768
H     -0.18923412     0.84538478    -1.63045585
H      0.67267064     0.23044288    -2.82370221
O     -2.45986060    -0.26257086     1.29500623
H     -3.21513871     0.11362652     0.78941922
H     -2.26204999    -1.02904838     0.75711003
O      2.18643595    -0.05587075     1.29903148
H      1.40809922     0.13855171     0.95702936
H      2.23901870    -1.20682543     1.00366334
O      2.04713732    -0.39304475    -3.20857993
H      1.97397231    -0.41206880    -4.29084308
H      2.91862848     0.06132854    -2.84436726
O     -2.21867583    -2.86999633     0.39044214
H     -2.91010960    -3.42929795     0.76966656
H     -2.34387672    -3.00680758    -0.53506165
O      2.32121151    -2.90957749     0.49803454
H      1.45456036    -3.34282185     0.71953468
H      2.18611810    -3.01669355    -0.54029843
O     -2.23548298    -0.41498055    -3.26054503
H     -1.52275124     0.08482309    -3.10032734
H     -2.34094511    -0.24836215    -4.17712623
O     -4.38396258     0.76198180     0.28751880
H     -5.30741298     0.41082562     0.76111767
H     -4.52357535     1.73040536     0.61040547
O      4.28560561     0.95857129     0.19663976
H      3.69610797     0.55076474     0.65922869
H      4.33317642     1.81414441     0.62100385
O      2.09340265    -0.49880673     3.94573984
H      2.18628644    -0.37318336     3.07874608
H      2.86921776     0.07141684     4.13935340
36
iceXI n=12 T=150K rep=1
O     -0.18895520     1.05991283     0.13563191
H     -0.25276149     1.79508619     0.66881228
H     -0.91193053     0.62543960     0.61825380
O     -0.11573317     3.34544517     1.15385686
H     -0.54456319     3.96848068     0.91630165
H     -0.24668981     3.47935582     2.14913995
O      0.12675549     1.08552278    -2.57145049
H     -0.01077033     0.81332737    -1.60366992
H      0.81613840     0.57517570    -2.86392945
O     -2.42132245    -0.26740307     1.31352383
H     -3.02988614     0.12785703     0.65686629
H     -2.46895012    -1.13843858     0.85186483
O      2.15529925    -0.22558542     1.11353324
H      1.38760786    -0.00578928     0.82170692
H      2.02144075    -1.28551196     0.76517403
O      2.16738255    -0.34739921    -3.41606842
H      2.22388938    -0.25637331    -4.29155309
H      2.96396032     0.08022573    -3.03217277
O     -2.49570267    -2.86468119     0.48545306
H     -3.27003897    -3.48212605     0.84195873
H     -2.34722024    -3.02433224    -0.62790043
O      2.23977899    -2.80208763     0.46556847
H      1.50387840    -3.54439443     0.71667985
H      2.12081442    -2.90154456    -0.57640063
O     -2.35030497    -0.34094898    -3.29076311
H     -1.45760482    -0.05051701    -3.17414854
H     -2.43462546    -0.28018405    -4.29621198
O     -4.58303365     0.94483502     0.51094819
H     -5.32843696     0.48232458     0.63936909
H     -4.64975136     1.75741141     0.63594796
O      4.49585281     0.99728194     0.39680035
H      3.62428111     0.45858153     0.52839588
H      4.38808164     1.76785392     0.59180801
O      2.14564271    -0.46702660     4.04488237
H      2.19085310    -0.49007390     3.01629662
H      2.92710835     0.10101916     4.40553056
36
iceXI n=12 T=150K rep=2
O     -0.06664012     0.95121537     0.29222170
H     -0.01599783     1.87078965     0.70048937
H     -0.81688041     0.57736650     0.69515426
O     -0.15516897     3.41603229     1.32342204
H     -0.85195041     3.80335640     0.91517195
H     -0.16201375     3.69728143     2.21710136
O     -0.19098956     1.08880101    -2.63723001
H     -0.11966861     1.11644407    -1.69289629
H      0.46792647     0.57777979    -2.89571003
O     -2.37533036    -0.40180311     1.25512005
H     -3.17931833     0.00173340     0.83062885
H     -2.39140607    -1.25479180     0.92327735
O      2.24251635    -0.35628440     1.30763452
H      1.49777027     0.12697182     0.97760665
H      2.17330522    -1.14102031     1.00618799
O      2.07610928    -0.35887643    -3.33604681
H      2.07168573    -0.41713780    -4.26497377
H      2.91956054     0.08976039    -3.07989702
O     -2.29230408    -2.92087864     0.31562666
H     -3.11621796    -3.38170427     0.69281338
H     -2.36031392    -2.91227108    -0.69790706
O      2.07334112    -2.82719924     0.33596090
H      1.24700795    -3.21800835     0.69723127
H      2.06139119    -2.81478939    -0.59290102
O     -2.45212464    -0.36346549    -3.20898678
H     -1.56257706     0.03139745    -2.87973197
H     -2.41881793    -0.33340433    -4.15646028
O     -4.63516081     0.95155688     0.11259169
H     -5.47991375     0.52964065     0.57702197
H     -4.67057445     1.83348570     0.49524536
O      4.34954214     0.95628523     0.31772597
H      3.58703296     0.60066274     0.66286791
H      4.39526508     1.81752786     0.72977430
O      2.09618364    -0.34102957     4.15810878
H      2.13454160    -0.28138016     3.10643750
H      3.03944513     0.08108783     4.26450381
36
iceXI n=12 T=150K rep=3
O     -0.12804329     0.92716374     0.21142133
H     -0.17948278     1.84697098     0.49675172
H     -0.98498401     0.62627287     0.55179259
O     -0.07751410     3.48003691     1.18697024
H     -0.97644872     3.85978588     0.95515734
H     -0.05942295     3.60513905     2.15766861
O     -0.15039718     0.98422995    -2.42599636
H     -0.14401148     0.91468410    -1.46659541
H      0.57385561     0.36127888    -2.67017822
O     -2.40905946    -0.28508701     1.20309821
H     -3.16295564     0.18145187     0.85606020
H     -2.34527589    -1.16251604     0.92741789
O      2.36046478    -0.37422430     1.24386968
H      1.45673512     0.04564558     1.01780148
H      2.29654434    -1.24437492     0.85903643
O      2.09780161    -0.28036121    -3.22085000
H      2.13284977    -0.30614433    -4.16822737
H      2.90800948     0.11261079    -2.91921783
O     -2.34692424    -3.06154821     0.45265137
H     -3.12530185    -3.58633989     0.67830291
H     -2.26557830    -3.07706756    -0.54656890
O      2.23608173    -2.85876316     0.36840637
H      1.41359340    -3.28731105     0.62470533
H      2.25585603    -2.87857476    -0.60428758
O     -2.39115836    -0.45675286    -3.27878084
H     -1.59507778     0.08074496    -3.00384963
H     -2.46807764    -0.42929989    -4.22499871
O     -4.49352609     0.87647828     0.31854847
H     -5.24952057     0.50728036     0.61582470
H     -4.48670263     1.80238479     0.67995319
O      4.42293774     0.87075928     0.22882437
H      3.73745481     0.44182791     0.56218973
H      4.41780138     1.73143054     0.59051590
O      2.13053966    -0.52444469     4.11057010
H      2.26461395    -0.46336685     3.13866439
H      2.92681466     0.07139676     4.41613300
36
iceXI n=12 T=150K rep=4
O     -0.00871777     0.69894318     0.45744713
H     -0.24963704     1.70750188     0.78471680
H     -0.81538442     0.37438549     0.74628419
O     -0.07288610     3.66756493     1.02598566
H     -0.75568436     4.05183307     0.94938030
H      0.01676638     3.60877056     2.08233960
O     -0.15891847     0.90848641    -2.37148771
H     -0.28231440     0.86131295    -1.52182585
H      0.68163823     0.59489814    -2.72292512
O     -2.44866567    -0.28119858     1.32481870
H     -3.14770545     0.10166684     0.78000509
H     -2.27083384    -1.13836544     0.83098991
O      2.20218318    -0.31303996     1.34140098
H      1.22863417     0.06104811     1.05670315
H      1.97282184    -0.98838805     0.93669218
O      1.90122035    -0.09276323    -3.29800469
H      2.06071728    -0.34007348    -4.32676370
H      2.78554281     0.33301339    -3.28828903
O     -2.24021162    -2.98705819     0.54762952
H     -2.97417488    -3.31196534     0.59987839
H     -2.24222534    -3.09078169    -0.49447097
O      2.11097366    -2.76750607     0.43016236
H      1.50222310    -3.37893383     0.63201070
H      1.90643239    -2.96344903    -0.67413894
O     -2.43108128    -0.47831584    -3.37585595
H     -1.77922058     0.04362021    -3.05383046
H     -2.43617463    -0.45918606    -4.35336663
O     -4.52672009     0.83351003     0.24875755
H     -5.29725875     0.58070189     0.50901344
H     -4.50509112     1.87476090     0.83689332
O      4.45648202     0.73413321     0.41493036
H      3.60037290     0.64885607     0.67742072
H      4.48829375     1.83474823     0.80132785
O      1.98298660    -0.44203884     3.89900791
H      2.08479793    -0.22892541     3.07875840
H      2.83399571     0.03595213     4.30480564
36
iceXI n=12 T=150K rep=5
O      0.01973009     1.05512131     0.21973088
H     -0.12344083     1.87605922     0.54583744
H     -0.85816606     0.49750763     0.54667203
O     -0.01853013     3.46896614     1.03327965
H     -0.88587361     3.90970717     0.89361306
H      0.06744347     3.45021942     2.05726123
O     -0.26950519     0.94456574    -2.34678601
H     -0.14856748     1.02373937    -1.42186394
H      0.40433693     0.18443527    -2.61447156
O     -2.29793863    -0.34675976     1.24083569
H     -3.01682478     0.26268609     0.93499681
H     -2.34307027    -1.31761659     0.89587713
O      2.27349875    -0.27401037     1.11806884
H      1.44910721     0.16146744     0.87159398
H      2.21202594    -1.32997393     0.73500689
O      2.02672067    -0.23019602    -3.20684510
H      2.06955654    -0.28099718    -4.22297635
H      2.79014059     0.19859622    -2.75948836
O     -2.30724889    -2.95652434     0.32651848
H     -3.06879704    -3.44664607     0.65052707
H     -2.54288373    -2.86165863    -0.50349149
O      2.35576723    -2.87274318     0.40249029
H      1.40925429    -3.24471743     0.59710187
H      2.23175675    -2.84679407    -0.55922889
O     -2.43780926    -0.43498908    -3.12853179
H     -1.58325325     0.01848928    -2.98339291
H     -2.35447825    -0.44494850    -4.21637096
O     -4.45735707     1.04975056     0.22098053
H     -5.36350066     0.76093759     0.49688989
H     -4.72226581     1.90867033     0.70223842
O      4.48114676     0.76081160     0.37572958
H      3.77186322     0.38987462     0.76811146
H      4.32448879     1.80301302     0.70942361
O      2.28810039    -0.33327537     3.98532919
H      2.32924876    -0.18543667     3.00397473
H      2.99540322     0.15004604     4.32072555
48
iceXI n=16 T=50K rep=0
O      0.01890755    -0.00912446     0.24739719
H     -0.04646639     0.83055990     0.57230328
H     -0.79150203    -0.35663698     0.50153753
O     -0.08813659     2.45910076     1.07648558
H     -0.81279111     2.98533201     0.72435035
H     -0.14286252     2.44976048     2.00173974
O     -0.24348408    -0.03342536    -2.49515000
H     -0.09811659    -0.06345655    -1.53986758
H      0.59619441    -0.36771911    -2.85900691
O     -2.33717285    -1.37009182     1.25843436
H     -3.04642848    -1.01564432     0.83045138
H     -2.28179473    -2.21132227     0.90253357
O      2.20103211    -1.40972371     1.16041202
H      1.39399259    -0.89036806     0.86795961
H      2.16545822    -2.30902944     0.81574593
O      2.20176457    -1.53669827    -3.47707800
H      2.10494789    -1.34799264    -4.48851030
H      2.89292225    -0.99846188    -3.17740494
O     -2.30713070    -3.97964675     0.22221980
H     -3.15331112    -4.44828520     0.60662531
H     -2.37164616    -4.00954403    -0.73741484
O      2.23842765    -4.02901461     0.33548068
H      1.46417868    -4.45757005     0.54789901
H      2.15573601    -3.91052078    -0.63515657
O     -2.55827505    -1.36880953    -3.42142743
H     -1.78743261    -1.04000728    -2.95268385
H     -2.34959057    -1.30728887    -4.24960322
O     -4.63790180    -0.10402200     0.17183760
H     -5.51323029    -0.56139328     0.51322041
H     -4.68676309     0.68106335     0.36254884
O      4.50689647    -0.15777125     0.22225263
H      3.71271071    -0.58146308     0.68831392
H      4.53850183     0.67073219     0.55801123
O      2.06139448    -1.40989507     4.14222581
H      2.06101841    -1.43641110     3.13312396
H      2.88620054    -0.93219502     4.22481073
O     -0.11849842     2.59507427     3.91101689
H      0.61846201     3.00240349     4.24224324
H     -0.11485454     1.70907479     4.25707744
O     -0.15628758     2.63191663    -3.55930050
H      0.57768630     3.11229276    -3.21948621
H     -0.13663178     1.74100758    -3.20806856
O     -2.28093296     3.87873980     0.24621875
H     -3.23478740     3.45048721     0.49239937
H     -2.28886650     3.69030973    -0.70066604
O      2.34331899     3.77386212     0.27537523
H      1.51538718     3.27536585     0.52181238
H      2.15399391     3.91718966    -0.77717672
48
iceXI n=16 T=50K rep=1
O     -0.12405863    -0.14731594     0.35118482
H     -0.14861833     0.75622942     0.69518745
H     -0.87557156    -0.53605228     0.61983986
O     -0.06340090     2.54180140     1.25633094
H     -0.82612947     2.99810071     0.93364171
H     -0.12966006     2.47516584     2.17900515
O     -0.05336422    -0.13970634    -2.60813971
H     -0.12974272    -0.00892259    -1.64657771
H      0.68186198    -0.69647521    -2.73562223
O     -2.32003303    -1.39689681     1.15126470
H     -3.08106604    -0.99964760     0.85532876
H     -2.22323477    -2.29618154     0.80627675
O      2.06384740    -1.28055487     1.15644212
H      1.43673558    -0.99303075     0.75473120
H      2.13630871    -2.31177998     0.84097020
O      2.12916786    -1.40429379    -3.42132995
H      2.12075457    -1.50477762    -4.46630578
H      2.93044304    -1.01599810    -3.23354820
O     -2.28751390    -4.03272524     0.32926201
H     -2.91292003    -4.56190107     0.71861034
H     -2.47569046    -3.95103255    -0.63087214
O      2.14145252    -3.83908387     0.26364684
H      1.38332660    -4.39550828     0.59799508
H      2.13046222    -3.90254262    -0.64233120
O     -2.31284392    -1.45523669    -3.37467678
H     -1.67222007    -0.91953615    -2.98393037
H     -2.32311666    -1.18729515    -4.23626622
O     -4.46734830    -0.02458959     0.13055660
H     -5.29661176    -0.49253551     0.52397051
H     -4.52442667     0.90581104     0.60909664
O      4.43789554    -0.16369395     0.23818896
H      3.55543863    -0.56752311     0.61082919
H      4.37193363     0.80295109     0.58335742
O      2.04918881    -1.37689977     3.86362796
H      2.14878196    -1.28353839     3.03110345
H      2.87399124    -0.90723361     4.29387842
O     -0.03676021     2.35106889     3.88456825
H      0.81229479     2.88489901     4.18007514
H     -0.00220456     1.53427876     4.46739415
O     -0.14388021     2.57151944    -3.35955815
H      0.64084434     3.01856527    -2.98450594
H     -0.09108685     1.67443028    -3.12068742
O     -2.26732089     3.78018819     0.21266386
H     -3.11429137     3.32602863     0.51150142
H     -2.36059813     3.74468173    -0.74428239
O      2.21040096     3.84096803     0.24955600
H      1.53339217     3.28989607     0.56822673
H      2.07462286     3.78992623    -0.71791651
48
iceXI n=16 T=50K rep=2
O     -0.13692819    -0.13895169     0.12241502
H     -0.08263052     0.70938969     0.55311667
H     -0.83354803    -0.54314702     0.56063544
O      0.18675464     2.53664183     1.15567240
H     -0.68518883     2.81595502     0.73859719
H      0.01386129     2.64938212     2.04906227
O     -0.15624192    -0.06910373    -2.60149981
H     -0.17862061    -0.10041281    -1.60268458
H      0.64937628    -0.44569949    -2.59855632
O     -2.15143121    -1.26663201     1.11410954
H     -3.03634431    -0.87432871     0.63561049
H     -2.27242691    -2.06240777     0.75291290
O      2.23553386    -1.35261889     1.34158873
H      1.55862901    -0.82826726     0.97548055
H      2.19046634    -2.18769171     0.87506658
O      2.01673124    -1.52503789    -3.26201365
H      2.09768166    -1.40308192    -4.13476114
H      2.72654824    -1.03940911    -2.96591798
O     -2.43185075    -3.84016559     0.51581243
H     -3.17314461    -4.26516731     0.71117363
H     -2.44368881    -3.84005655    -0.53086860
O      2.15757610    -3.82357518     0.25770862
H      1.47678876    -4.49271048     0.58332633
H      2.37268783    -3.75297488    -0.75651668
O     -2.31719983    -1.22443511    -3.29922629
H     -1.51546279    -0.97172984    -3.29092056
H     -2.14265543    -1.47799742    -4.32743975
O     -4.56330183    -0.09787941     0.26609396
H     -5.10541537    -0.50667339     0.68228552
H     -4.39437680     0.87799812     0.70652782
O      4.28414029    -0.11513900     0.31339062
H      3.45949015    -0.59344914     0.66506393
H      4.41847998     0.87627454     0.48942801
O      2.24676686    -1.31494736     3.97922754
H      2.26326888    -1.44112905     3.02089226
H      2.95986683    -1.01025794     4.32568647
O      0.00039585     2.63546447     3.70435078
H      0.52239816     2.98675023     4.29439652
H     -0.23622095     1.58830614     4.12658031
O     -0.06043286     2.47119416    -3.43847766
H      0.65054965     2.98984545    -3.20250655
H     -0.13134444     1.49747179    -3.16951025
O     -2.29692951     3.94563510     0.31158573
H     -2.94249925     3.33764592     0.60404927
H     -2.24670601     3.68989263    -0.76041196
O      2.24171186     3.75286682     0.18928740
H      1.46620970     3.44405842     0.49143443
H      1.99086342     3.82629043    -0.68626759
48
iceXI n=16 T=50K rep=3
O      0.00477241    -0.04711857     0.29699856
H     -0.08866436     0.78096184     0.48547860
H     -0.88655280    -0.43559626     0.53674318
O     -0.07005911     2.34472538     1.11187777
H     -0.64133658     2.96745210     0.85426231
H      0.02780545     2.47247578     2.17138066
O     -0.10666328    -0.24864392    -2.52518779
H      0.07673094    -0.28489644    -1.55888366
H      0.77872534    -0.54134437    -2.94284535
O     -2.38102707    -1.36868478     1.23227346
H     -3.14535509    -0.86614872     0.81297264
H     -2.37367857    -2.27486209     0.84450321
O      2.15109613    -1.26240914     1.14650152
H      1.34814594    -0.87659707     0.94583755
H      2.18369846    -2.28663890     0.80567014
O      2.16271860    -1.42777215    -3.44396936
H      2.08707320    -1.55372963    -4.39096629
H      2.92512937    -1.22721818    -3.14726732
O     -2.22445864    -4.09636729     0.39570438
H     -3.05717363    -4.55192871     0.74694849
H     -2.28996933    -4.07417111    -0.63929190
O      2.13855950    -3.95298289     0.25408961
H      1.46115431    -4.40555652     0.50390998
H      2.25012225    -3.92561204    -0.71947651
O     -2.42591608    -1.46958777    -3.27508224
H     -1.62181546    -1.00442210    -3.04452162
H     -2.42287030    -1.46818496    -4.31381532
O     -4.47117412    -0.17175375     0.37076273
H     -5.32375260    -0.55678320     0.53389956
H     -4.54838652     0.68152185     0.67175547
O      4.49499195    -0.16747572     0.13935174
H      3.69451954    -0.46967293     0.49371388
H      4.43914334     0.79918436     0.47777128
O      2.22294309    -1.31881632     3.90768799
H      2.18546013    -1.23511608     3.03484597
H      2.86055087    -0.94934663     4.24354734
O     -0.04824867     2.53971708     3.87484675
H      0.72599752     3.10026803     4.10857538
H     -0.02972373     1.75640446     4.30097966
O     -0.20647948     2.55161399    -3.37794848
H      0.63936429     3.10820771    -3.19439937
H     -0.07079224     1.53780897    -3.02324373
O     -2.38738891     3.79056144     0.28268551
H     -3.13425515     3.45643802     0.50498590
H     -2.37145632     3.77630963    -0.68332322
O      2.25751484     3.92702742     0.23736978
H      1.39500529     3.49123532     0.53494804
H      2.16483079     3.80995216    -0.63484029
48
iceXI n=16 T=50K rep=4
O      0.05274820    -0.30222304     0.19250973
H     -0.00855538     0.65963116     0.47734057
H     -0.71141548    -0.81672616     0.48483718
O      0.18251717     2.41412036     1.04702495
H     -0.64977636     2.93982161     0.78666425
H      0.09803644     2.39908728     2.08908478
O     -0.11540547     0.01880118    -2.74395488
H     -0.13104227     0.00647836    -1.81343689
H      0.65216660    -0.53334427    -2.81024507
O     -2.36865900    -1.26393152     1.25897304
H     -3.00674653    -0.92562032     0.88387865
H     -2.36453267    -2.30825234     0.86640318
O      2.22199432    -1.17639603     1.23124158
H      1.30572271    -0.74746064     0.82763391
H      2.27803799    -2.13979065     0.94778134
O      2.21139024    -1.33757100    -3.60276276
H      2.22137225    -1.41871007    -4.44238262
H      2.94595163    -1.00243339    -3.38313135
O     -2.27721191    -3.76210489     0.09965650
H     -3.11682614    -4.25065998     0.39811585
H     -2.27883489    -4.01314973    -0.95879029
O      2.18070726    -4.09876054     0.32179317
H      1.40007097    -4.42446008     0.68656040
H      2.23076715    -4.17386123    -0.57881306
O     -2.41778107    -1.55327439    -3.30846250
H     -1.57139533    -0.99575739    -3.17399905
H     -2.35035780    -1.45446469    -4.23394036
O     -4.45590848    -0.13932620     0.17571838
H     -5.21443486    -0.67253102     0.36604599
H     -4.63595922     0.85369006     0.72961628
O      4.43216859    -0.02935927     0.27922152
H      3.63038052    -0.71466156     0.61456240
H      4.33791255     0.97752060     0.71611324
O      2.14025905    -1.48101339     4.05423284
H      2.25430091    -1.40209602     3.05881029
H      2.74941117    -1.12231143     4.43163770
O     -0.27434446     2.71146719     3.72661855
H      0.66978809     3.03755555     4.17889467
H     -0.17281791     1.58974662     4.18196509
O     -0.07707828     2.44285042    -3.55453614
H      0.63946967     2.87468409    -3.00112042
H      0.07482629     1.47935235    -3.18708591
O     -2.34912349     3.85638992     0.23474402
H     -3.19233997     3.39123124     0.62062383
H     -2.51841011     3.79279830    -0.63548092
O      2.12130953     3.83925354     0.19391528
H      1.26796177     3.38952326     0.46067772
H      2.08373045     3.77984714    -0.60510198
48
iceXI n=16 T=50K rep=5
O     -0.04837198    -0.04645803     0.04682946
H     -0.13218542     0.82358623     0.54048137
H     -0.79405291    -0.58814886     0.45044662
O      0.02518380     2.61599868     1.35876536
H     -0.85145000     3.09269937     0.93174136
H     -0.07684194     2.53951633     2.20717978
O     -0.03897133    -0.14921365    -2.54196020
H      0.12196524    -0.24783994    -1.48416979
H      0.84357960    -0.58597871    -2.72397920
O     -2.15730610    -1.47236775     1.27825925
H     -3.10590391    -0.95754858     0.94251234
H     -2.26386627    -2.17914078     1.02980192
O      2.22370644    -1.25514971     1.24732764
H      1.36324642    -0.69669736     0.89311198
H      2.03221821    -2.13068216     0.81323094
O      2.01908896    -1.22228775    -3.36536756
H      2.12450299    -1.21389728    -4.12561949
H      2.95641009    -0.89270242    -3.02940259
O     -2.19024452    -3.82239090     0.35657128
H     -3.00193846    -4.35961232     0.54402331
H     -2.37320512    -3.84681697    -0.60103759
O      2.17380291    -3.76157065    -0.00223102
H      1.42480602    -4.29769792     0.41405953
H      2.12597437    -3.85044119    -0.91032859
O     -2.41850047    -1.19573185    -3.31614093
H     -1.41273411    -0.92332133    -3.13135091
H     -2.51425637    -1.23220087    -4.35023140
O     -4.48259777    -0.21704402     0.14097860
H     -5.29420110    -0.64094999     0.47899886
H     -4.50781431     0.70178166     0.50756676
O      4.48894961    -0.12023290     0.19457912
H      3.58925302    -0.58079950     0.51540541
H      4.48643258     0.51644149     0.73361669
O      2.00283804    -1.36634441     3.95073045
H      2.17745874    -1.46840501     3.18585416
H      2.76605863    -1.03118684     4.42256754
O      0.02408334     2.49037812     3.98827917
H      0.62975758     2.93590794     4.37734344
H     -0.04255795     1.69044902     4.42636607
O     -0.09700308     2.62691436    -3.52798395
H      0.63985640     3.04127015    -3.16131844
H     -0.14955032     1.81401260    -3.14145238
O     -2.10888502     3.96609600     0.10609805
H     -2.94013268     3.51777274     0.71955447
H     -2.27089283     3.83528790    -0.83664337
O      2.10703482     3.85445690     0.29853537
H      1.48290762     3.28043125     0.63102730
H      2.17444689     3.73962273    -0.58010654
48
iceXI n=16 T=150K rep=0
O     -0.14760918     0.11313657     0.33467140
H     -0.33231244     0.98340772     0.52247704
H     -0.70423217    -0.41864759     0.57708059
O      0.10407265     2.60425478     1.20302545
H     -0.82520669     3.19059208     0.80413682
H      0.03228379     2.54414180     1.95391072
O     -0.11886354    -0.08674878    -2.59405269
H     -0.12101075    -0.09489923    -1.56638081
H      0.61474118    -0.46843286    -2.79534173
O     -2.16362614    -1.10072843     1.08999125
H     -2.96725864    -0.80156233     0.72283255
H     -2.13088410    -1.95782198     0.73442330
O      2.05374975    -1.35939346     1.17278261
H      1.21011688    -0.84526954     0.82162502
H      2.00370193    -2.15435702     0.81577266
O      1.97552704    -1.49334417    -3.46181608
H      2.21078366    -1.51119194    -4.50716054
H      2.80810113    -0.98245145    -3.08327889
O     -2.33037478    -3.92914523     0.32175060
H     -2.99661966    -4.43194207     0.57405053
H     -2.27237790    -3.95274272    -0.60480728
O      2.13574077    -3.94499895     0.22384215
H      1.34574059    -4.39335233     0.51808025
H      2.24223260    -3.97102336    -0.69610235
O     -2.51864009    -1.36235178    -3.35113919
H     -1.63414085    -1.00634669    -3.09466198
H     -2.38533304    -1.37304214    -4.30182073
O     -4.45222690    -0.08365595     0.32867106
H     -5.22011829    -0.50934023     0.56550176
H     -4.37271029     0.74861886     0.68266360
O      4.41137410    -0.10478305     0.39108727
H      3.66275657    -0.42951900     0.57578855
H      4.55932149     0.83521311     0.53376670
O      2.06721305    -1.39538654     3.94730179
H      2.26496878    -1.34817534     2.89682918
H      2.95201157    -0.89111595     4.27917822
O     -0.00039913     2.62222351     3.81154714
H      0.70988463     2.98634441     4.29446661
H      0.11640164     1.70783170     4.14088329
O     -0.22139040     2.51083813    -3.38006498
H      0.66448201     2.99445575    -3.20196884
H     -0.00745800     1.62791694    -2.97763143
O     -2.25033601     3.83374889     0.16769885
H     -2.96679771     3.29560661     0.66049394
H     -2.31298447     3.80189508    -0.60831575
O      2.14282202     3.71782075     0.29088988
H      1.50916025     3.39892945     0.54108564
H      2.24393235     3.64122811    -0.59991109
48
iceXI n=16 T=150K rep=1
O     -0.05354297    -0.01003485     0.21535906
H     -0.04154862     0.86443076     0.54002726
H     -0.85753449    -0.46469326     0.59111562
O     -0.03265417     2.48937667     1.20843956
H     -0.81866212     3.00957404     0.90907076
H     -0.04818977     2.49555613     2.13536861
O     -0.27906326    -0.17498383    -2.58661008
H     -0.15133532    -0.19611069    -1.50112689
H      0.55493533    -0.56914194    -2.92799705
O     -2.24172716    -1.33234474     1.17135260
H     -3.02717675    -0.97408187     0.90877871
H     -2.27099499    -2.18253695     0.91063226
O      2.25095952    -1.33336659     1.28265030
H      1.35981996    -0.94503053     0.89438008
H      2.14346749    -2.31015464     0.97208455
O      2.01297822    -1.33420393    -3.58398702
H      2.04910394    -1.31539170    -4.45832574
H      2.83528966    -0.81654329    -3.24790136
O     -2.27201880    -3.82375352     0.29572066
H     -3.04066945    -4.37674214     0.68188894
H     -2.36998032    -3.92550373    -0.66550170
O      2.13858139    -4.00254303     0.32554165
H      1.41690337    -4.43259259     0.59392993
H      2.13053644    -4.01366432    -0.60072887
O     -2.32977083    -1.35118990    -3.33943188
H     -1.50404767    -0.97375338    -3.00534356
H     -2.27169432    -1.30793766    -4.28995198
O     -4.41580912    -0.10698965     0.06753752
H     -5.29210105    -0.51247242     0.49837307
H     -4.56439749     0.81073525     0.46390952
O      4.48840311    -0.05577909     0.14986506
H      3.69860648    -0.43977532     0.48588432
H      4.45274478     0.85371080     0.68084657
O      2.28589108    -1.33828744     3.98595458
H      2.18739603    -1.28693467     2.97410595
H      3.09008144    -0.88493264     4.17846154
O     -0.09142777     2.51898122     3.77062754
H      0.67010103     2.96054022     4.07487674
H     -0.03768038     1.60854664     4.15536303
O     -0.08636766     2.55516735    -3.51172066
H      0.71524182     3.00066421    -3.12166292
H     -0.06403669     1.70815132    -3.15952887
O     -2.32841353     3.70957625     0.23821160
H     -2.99654403     3.21284096     0.61458553
H     -2.46310592     3.69048924    -0.75476915
O      2.27193342     3.82390595     0.20944679
H      1.40240479     3.30582344     0.52486902
H      2.23347201     3.72458936    -0.78709056
48
iceXI n=16 T=150K rep=2
O     -0.03246014    -0.09401394     0.18200491
H     -0.14849801     0.68757582     0.43024034
H     -0.77702341    -0.64429094     0.50467680
O     -0.11660394     2.55288461     1.09569357
H     -0.88400797     3.08546448     0.89667209
H     -0.09861095     2.58499921     2.16062902
O      0.02235778    -0.00997552    -2.51457093
H      0.04365283    -0.05491503    -1.53746564
H      0.85126151    -0.44624056    -2.73610459
O     -2.45645018    -1.45635551     1.11118839
H     -3.23792507    -1.11204486     0.81676139
H     -2.31591052    -2.38042821     0.76697708
O      2.10318787    -1.30380799     1.15855137
H      1.28908267    -0.80999495     0.73152102
H      2.10013111    -2.15683576     0.85872757
O      2.03682987    -1.46028132    -3.47110536
H      2.07764875    -1.47048038    -4.44367683
H      2.83336631    -0.99793531    -3.17680350
O     -2.44459667    -3.79510583     0.15938076
H     -3.18842626    -4.19629688     0.41524835
H     -2.30924316    -3.83272907    -0.78516004
O      2.16881283    -3.92406428     0.23511097
H      1.37588518    -4.38128610     0.58665612
H      2.05209600    -3.84947836    -0.78776740
O     -2.25150368    -1.33397435    -3.35110090
H     -1.43934208    -0.92083261    -3.04279268
H     -2.30036768    -1.27679356    -4.32547635
O     -4.52827304    -0.13726814     0.14556799
H     -5.31956218    -0.53546707     0.57469327
H     -4.60659460     0.83002463     0.56596179
O      4.68251117    -0.12519303     0.17289378
H      3.87373757    -0.53576759     0.44258501
H      4.52225875     0.82899495     0.52976492
O      2.07370767    -1.53193782     4.13281393
H      2.07060400    -1.46628132     3.09803936
H      2.99378190    -1.04871570     4.32492733
O     -0.01134522     2.43206576     3.90407599
H      0.79237693     2.86882287     4.27679824
H      0.01721751     1.50881963     4.30172756
O     -0.10037700     2.48576330    -3.58199222
H      0.66830756     2.92819322    -3.25775390
H     -0.05431333     1.62903553    -3.22894487
O     -2.44431839     3.78651344     0.27441220
H     -3.23522601     3.38295838     0.52108592
H     -2.39904592     3.90743753    -0.73177511
O      2.20552554     3.98194899     0.29562152
H      1.39010745     3.42652756     0.50874010
H      2.11873636     3.91852918    -0.68202027
48
iceXI n=16 T=150K rep=3
O     -0.04218161    -0.00479847     0.08673898
H     -0.04997600     0.77052788     0.50285903
H     -0.67898741    -0.55761679     0.32499948
O     -0.14847237     2.58070582     0.95212638
H     -0.88717421     2.87451815     0.64863709
H     -0.19722984     2.66278742     1.97781422
O     -0.12689691     0.04373087    -2.43982127
H     -0.03996683    -0.10530459    -1.58604563
H      0.70836793    -0.59184577    -2.76077722
O     -2.26291482    -1.40035369     1.32293741
H     -3.03995576    -0.88941159     0.94726387
H     -2.42613056    -2.15852404     1.00866516
O      2.32325773    -1.36718450     1.25428127
H      1.42347485    -1.07722490     0.91898685
H      2.16538640    -2.35185077     0.88691002
O      2.14291743    -1.20202781    -3.34819752
H      2.07647091    -1.40532944    -4.24019928
H      2.95022692    -0.85869725    -3.26491965
O     -2.40994186    -3.92121833     0.19321545
H     -3.08871379    -4.43963627     0.40355820
H     -2.16673658    -3.93927854    -0.65770197
O      2.28701650    -3.81759817     0.19706994
H      1.48144851    -4.18383693     0.40626126
H      2.23494583    -3.93132411    -0.78284022
O     -2.46599078    -1.34916515    -3.54104524
H     -1.64955009    -1.03482808    -3.20752549
H     -2.31022153    -1.31730178    -4.53410445
O     -4.57603781    -0.06836199     0.12154455
H     -5.35829619    -0.45714782     0.47176708
H     -4.50697300     0.80716545     0.47938834
O      4.42728116    -0.18336621     0.21654819
H      3.60287927    -0.56127068     0.49626113
H      4.46441824     0.76068106     0.53314214
O      1.89258277    -1.10059459     4.13687617
H      1.88428310    -1.27125864     3.15994585
H      2.84799200    -0.88819694     4.33830143
O     -0.16578217     2.72803519     3.79221453
H      0.81482682     3.00096037     4.14698320
H     -0.01009985     1.80026325     4.12114913
O     -0.20704604     2.56737723    -3.67673468
H      0.61279715     2.93218060    -3.16883171
H     -0.08809418     1.56772037    -3.20554321
O     -2.30136543     3.81287298     0.19452693
H     -3.18273139     3.33487664     0.44342427
H     -2.29656823     3.84094066    -0.69247686
O      2.17514685     3.79682041     0.22766243
H      1.36590718     3.36537683     0.64136861
H      2.26127345     3.65210811    -0.73991771
48
iceXI n=16 T=150K rep=4
O      0.02987329     0.02752607     0.22087569
H     -0.03086398     0.97472723     0.52277062
H     -0.69760279    -0.51006163     0.55354717
O     -0.01595184     2.73948790     1.03424303
H     -0.89563203     3.15732714     0.80909422
H     -0.24418055     2.49305196     1.96406798
O     -0.04662371     0.09903551    -2.42146896
H     -0.02840482     0.11401019    -1.50123104
H      0.53019994    -0.34754034    -2.83164989
O     -2.33374231    -1.26656076     1.29415615
H     -2.97072692    -0.82510820     0.95409828
H     -2.31604854    -2.12659038     0.91889112
O      2.13771008    -1.39622784     1.23470198
H      1.36640375    -1.02890212     0.91209907
H      2.09140949    -2.28122942     1.01091404
O      2.02461547    -1.54495537    -3.32885348
H      1.91101205    -1.51461599    -4.09422035
H      2.74966079    -1.01437861    -2.98722230
O     -2.32458105    -4.03657205     0.21967662
H     -2.99785319    -4.51959713     0.43521710
H     -2.21282536    -3.92817586    -0.69548597
O      2.03896262    -3.85955888     0.22603455
H      1.41184764    -4.31245879     0.61692899
H      1.87049803    -3.97611853    -0.66536903
O     -2.47540378    -1.30489224    -3.47071563
H     -1.62425336    -0.87023060    -3.19783455
H     -2.39518671    -1.32488677    -4.42561014
O     -4.55979016    -0.25894202     0.18867276
H     -5.26828843    -0.73824060     0.75070088
H     -4.40827640     0.57659200     0.43947167
O      4.36154739    -0.14496748     0.15849424
H      3.67760555    -0.65331678     0.47494322
H      4.38075559     0.79551956     0.43877478
O      2.12399513    -1.40822763     4.09901961
H      2.03478966    -1.40983146     3.10106905
H      2.89027182    -0.87543583     4.44595900
O     -0.07348620     2.50486695     3.96956049
H      0.59488841     2.92643902     4.30678145
H     -0.04857223     1.72411404     4.21607768
O     -0.09186049     2.53431429    -3.37676575
H      0.68550948     2.99318588    -3.03110890
H     -0.10727454     1.62944103    -3.09994307
O     -2.29206608     3.86403427     0.25560526
H     -3.00101804     3.38683990     0.42249332
H     -2.15908283     3.90318193    -0.74813620
O      2.26522019     4.02297817     0.37200128
H      1.49040475     3.40432279     0.61953825
H      2.13677778     3.92814384    -0.43849809
48
iceXI n=16 T=150K rep=5
O     -0.06789817    -0.23714655     0.09354337
H      0.18438521     0.81732700     0.47596243
H     -0.81056399    -0.43290356     0.64263671
O     -0.11526928     2.59984897     1.09475525
H     -0.85882819     3.01907417     0.78167508
H     -0.17672969     2.56160757     2.11348457
O     -0.04655518    -0.08671574    -2.70509051
H      0.04970719    -0.00441466    -1.71823204
H      0.66769681    -0.68735212    -2.86576934
O     -2.31150177    -1.46766433     1.30526059
H     -3.05418622    -0.96019151     0.98632550
H     -2.39638600    -2.35940000     0.97422268
O      2.13628746    -1.26365264     1.12849767
H      1.26001816    -0.80329787     0.95093022
H      2.04218830    -2.11799493     0.95519493
O      2.14342710    -1.40360094    -3.36434072
H      2.22516756    -1.26648713    -4.29805471
H      3.15182879    -0.85202736    -3.09382542
O     -2.16366327    -3.86526458     0.22861645
H     -3.03737436    -4.30197740     0.40106931
H     -2.18691243    -3.91822520    -0.74779060
O      2.26159179    -3.92900320     0.31898342
H      1.41657500    -4.43462748     0.47843527
H      2.05055318    -3.79615531    -0.62286510
O     -2.40091205    -1.27624942    -3.28362744
H     -1.51824978    -0.85505256    -3.15466106
H     -2.24377185    -1.36016568    -4.27439558
O     -4.67688666    -0.05028230     0.25147293
H     -5.47801614    -0.41877565     0.52982176
H     -4.79306784     0.79538127     0.56606421
O      4.36477720    -0.07201712     0.30069007
H      3.58757672    -0.39319288     0.58292390
H      4.42491395     0.81331884     0.50108191
O      2.13716761    -1.29426224     3.82238690
H      2.05994021    -1.42788980     2.84254815
H      2.80197191    -0.92926768     4.22704975
O     -0.07554550     2.61686308     4.09018884
H      0.61628785     3.09233844     4.35438016
H     -0.04902070     1.73889343     4.51588632
O      0.05179711     2.58348055    -3.63034979
H      0.77949257     3.01776792    -3.32324725
H     -0.03858387     1.82464559    -3.37573979
O     -2.07215919     3.80813986     0.23620822
H     -2.90613500     3.41524888     0.42843650
H     -2.04632529     3.84192390    -0.61689898
O      2.33338136     3.80265604     0.27328134
H      1.44996046     3.23280159     0.53576157
H      2.05641409     3.92924264    -0.73261779
60
iceXI n=20 T=50K rep=0
O     -0.25207765    -0.30776181     0.11699081
H     -0.31339798     0.77176368     0.45995924
H     -1.08974022    -0.61112132     0.33992269
O     -0.24275184     2.17889242     0.83164908
H     -0.96548908     2.86191599     0.70938719
H     -0.23828328     2.26622198     1.79226731
O     -0.33917481    -0.29987828    -2.65941129
H     -0.22634358    -0.04473620    -1.72349121
H      0.33903337    -0.61480161    -3.08671750
O     -2.72309765    -1.64496094     1.13853294
H     -3.39839757    -1.08433173     0.65666514
H     -2.65962384    -2.44719283     0.80201344
O      1.98641940    -1.32939286     1.01067501
H      1.04032278    -1.06559580     0.76249843
H      2.12719847    -2.28577374     0.55790732
O      1.76335081    -1.65479739    -3.66710753
H      1.82920515    -1.52672755    -4.53667157
H      2.58821944    -1.11892383    -3.39620175
O     -2.64855113    -4.05527217     0.14054145
H     -3.35718455    -4.51766325     0.26496268
H     -2.66721465    -3.89090773    -0.78446210
O      1.88565305    -3.86310207     0.00664834
H      1.12764606    -4.54206043     0.39357681
H      1.97205143    -4.16218408    -0.74850562
O     -2.35221264    -1.69190431    -3.52743272
H     -1.67985012    -1.12169437    -3.33006071
H     -2.46369129    -1.62292317    -4.48982277
O     -4.98335724    -0.29295452     0.32254972
H     -5.74782644    -0.65803698     0.36812004
H     -4.87385281     0.52877869     0.42120908
O      4.22703829    -0.14963485     0.00220409
H      3.46256348    -0.69943512     0.34682536
H      3.97567677     0.72275187     0.48079334
O      1.89724013    -1.38211488     3.83862267
H      1.98390350    -1.36302377     2.83155208
H      2.70040280    -0.94021459     4.08309992
O     -0.46592742     2.33902476     3.93198132
H      0.31034067     2.78604060     4.03276352
H     -0.23491146     1.56498991     4.09307034
O     -0.49029343     2.38096289    -3.50699320
H      0.29494800     2.93875986    -3.29093885
H     -0.31173269     1.57838967    -3.18938679
O     -2.63356597     3.85594601     0.28759165
H     -3.41488854     3.21039063     0.50307076
H     -2.65286264     3.90879076    -0.74097484
O      1.81252631     3.77934379    -0.01132601
H      0.97730929     3.40462795     0.45304100
H      1.78205368     3.69345069    -0.96798681
O     -0.37583333    -0.19178571     4.90254278
H     -0.12731153    -0.34729434     5.68519856
H      0.53696066    -0.46092312     4.27711653
O     -2.67316247    -1.48768014     3.84769599
H     -1.97311447    -1.02548292     4.05596336
H     -2.64495852    -1.50908337     2.90607177
O      4.10630242    -0.16178647    -2.62747692
H      4.25845949    -0.32713968    -1.72238913
H      4.96805067    -0.59901663    -3.01637941
O      1.79565122     3.58888237    -2.69213272
H      2.77953780     3.21454049    -2.90463278
H      2.06731771     4.40140157    -2.94928456
60
iceXI n=20 T=50K rep=1
O     -0.21752233    -0.29874633    -0.02858489
H     -0.17448074     0.60485134     0.31735345
H     -1.12396783    -0.66829312     0.31602949
O     -0.28586637     2.39062472     1.02970932
H     -1.02676326     2.96460979     0.69321821
H     -0.41510478     2.59024031     1.83621696
O     -0.34492468    -0.11113259    -2.74951283
H     -0.24185853    -0.23093990    -1.82586028
H      0.43142097    -0.52618168    -3.11321167
O     -2.39803690    -1.65750853     0.95774747
H     -3.19468533    -1.21826976     0.61285519
H     -2.51152801    -2.47896582     0.53214057
O      1.94962246    -1.46728897     1.08584581
H      1.21133816    -0.97905371     0.74752815
H      1.96776544    -2.36156449     0.73658047
O      1.78859035    -1.51674287    -3.50811583
H      1.85238540    -1.41663865    -4.48056206
H      2.59066674    -0.84115917    -3.28939552
O     -2.40916172    -4.06551874     0.02404180
H     -3.23819499    -4.41627832     0.29939257
H     -2.47478800    -4.02839403    -0.96736366
O      1.92796963    -3.89339150     0.01813178
H      1.19767987    -4.44683417     0.38296022
H      1.76687283    -3.84415830    -0.91549446
O     -2.70550186    -1.44031397    -3.48642427
H     -1.93193432    -0.98508984    -3.22694082
H     -2.57431271    -1.59518384    -4.54331014
O     -4.66055868    -0.21957090     0.09115278
H     -5.27781789    -0.71313539     0.60816134
H     -4.69520443     0.65309124     0.39509271
O      4.17781860    -0.22135531     0.02412178
H      3.37975136    -0.65711508     0.27219902
H      4.09909469     0.70489909     0.44868774
O      1.89125758    -1.53999089     3.81189993
H      1.88899171    -1.47336565     2.81352246
H      2.66190536    -1.11056161     3.93302566
O     -0.56220895     2.54139716     3.76932398
H      0.33604929     2.84416660     4.02912581
H     -0.46869460     1.47442487     3.99807552
O     -0.39817809     2.38463380    -3.66371701
H      0.45273923     2.81722274    -3.32201695
H     -0.29107808     1.51560121    -3.22791808
O     -2.53282144     3.67030778     0.13068788
H     -3.34974417     3.19054655     0.40362116
H     -2.65666104     3.65816523    -0.82513118
O      1.87234406     3.60452703     0.24328209
H      1.09820069     3.04235032     0.42553106
H      1.88354113     3.79992382    -0.80743644
O     -0.29737849    -0.21719368     4.66483747
H     -0.39845140    -0.21338202     5.58977232
H      0.42218654    -0.60437888     4.31152017
O     -2.57750891    -1.32894351     3.66852338
H     -1.78810465    -0.96411517     3.97721819
H     -2.42573070    -1.30914083     2.69424559
O      4.20200907    -0.11777297    -2.70441458
H      4.19078585    -0.05600810    -1.76103813
H      4.73804233    -0.82321003    -2.94534429
O      1.89035392     3.69629471    -2.56989338
H      2.68867586     3.18452510    -2.92952914
H      2.02480143     4.49080803    -2.90423099
60
iceXI n=20 T=50K rep=2
O     -0.33884111    -0.23569829    -0.08217374
H     -0.33451761     0.61850449     0.10200469
H     -1.19221820    -0.61387412     0.41978446
O     -0.40218857     2.39192545     0.95785518
H     -1.03120775     2.71869913     0.68294681
H     -0.41673980     2.40037977     1.89142659
O     -0.39556222    -0.15737357    -2.62461490
H     -0.41518071    -0.16385079    -1.71926009
H      0.33724768    -0.72990862    -2.82863132
O     -2.60096752    -1.51660632     1.15026853
H     -3.38686162    -1.02583115     0.72390539
H     -2.37322007    -2.32151533     0.54680213
O      1.87238669    -1.34001114     1.04896154
H      1.01518489    -1.09583595     0.58627232
H      1.75285213    -2.41410440     0.74747381
O      1.91317579    -1.44661731    -3.60425006
H      1.78126803    -1.34103943    -4.50411891
H      2.56360220    -1.11376425    -3.29730920
O     -2.63000484    -4.19537743     0.04591974
H     -3.39412208    -4.46378274     0.17365809
H     -2.71057963    -3.94830283    -1.09224236
O      1.76325559    -4.01420343     0.16480967
H      0.98831297    -4.50460435     0.38270134
H      1.87941562    -4.11452636    -0.87840060
O     -2.60111313    -1.30964818    -3.47242378
H     -1.69929693    -0.87787261    -3.14670204
H     -2.55187998    -1.25995936    -4.56181483
O     -4.71105899    -0.02275586    -0.10936384
H     -5.44928380    -0.65114082     0.39191008
H     -4.84238556     0.77179385     0.16005318
O      4.24997770    -0.06658557    -0.00990052
H      3.59398689    -0.43373429     0.30751656
H      4.12752683     0.76588535     0.36341943
O      1.90651562    -1.47237812     3.84393025
H      1.93722751    -1.44752794     2.82702991
H      2.83149304    -1.16533019     4.12005347
O     -0.17151034     2.52265242     3.67184594
H      0.51227204     2.77124750     4.05780724
H     -0.32037038     1.33924870     3.97692438
O     -0.29128132     2.24252492    -3.64601735
H      0.53084151     2.88729362    -3.36945863
H     -0.17475564     1.52260132    -3.35114966
O     -2.41823504     3.58985149    -0.11116609
H     -3.38517122     3.34296282     0.34772961
H     -2.66229823     3.75774099    -1.03394423
O      2.02118279     3.90153435     0.18848206
H      1.27779693     3.30461420     0.36126478
H      2.07615965     3.92366273    -0.96166929
O     -0.54124691    -0.47113170     4.63271612
H     -0.50954046    -0.27096350     5.48236639
H      0.49670891    -0.59367891     4.28322063
O     -2.61078121    -1.56285279     3.88600952
H     -1.80744516    -1.14308122     4.05455810
H     -2.62567145    -1.62668082     2.86058849
O      4.06648989    -0.29245120    -2.61157654
H      4.03452767    -0.29139192    -1.80056089
H      4.86273056    -0.70790686    -2.98283010
O      1.87749496     3.66444141    -2.64757234
H      2.60239071     3.34171057    -2.88491450
H      2.07217949     4.50614964    -2.87191133
60
iceXI n=20 T=50K rep=3
O     -0.45583409    -0.24569888    -0.04490526
H     -0.29067021     0.69778258     0.18131118
H     -1.15746765    -0.65189033     0.30097367
O     -0.24842458     2.44479488     0.87883390
H     -1.16732888     2.87228431     0.81941702
H     -0.44782256     2.40832023     1.83658921
O     -0.30492779    -0.24330902    -2.62429872
H     -0.23811836    -0.26285230    -1.69147848
H      0.44214850    -0.83210932    -3.06979287
O     -2.61067411    -1.52005175     0.81481554
H     -3.44008824    -1.09838837     0.69978156
H     -2.61144902    -2.35347319     0.63119142
O      2.01328867    -1.46257998     0.99698022
H      1.13982815    -1.14366959     0.63750722
H      1.99994703    -2.45594414     0.66174411
O      1.87385038    -1.67482899    -3.47756044
H      2.00874158    -1.49022882    -4.44791060
H      2.66150270    -1.21468856    -3.13683116
O     -2.44685858    -3.98567160     0.13952604
H     -3.32857925    -4.48681444     0.35448531
H     -2.46982789    -4.07541696    -0.89758558
O      1.95328959    -3.92169045     0.13867943
H      1.12370667    -4.35947517     0.42532955
H      1.92785472    -4.04343704    -0.82969485
O     -2.50673334    -1.53469438    -3.61004382
H     -1.82647342    -1.12211037    -3.24826798
H     -2.53144470    -1.66295781    -4.43127821
O     -4.83864505    -0.07659452    -0.04753517
H     -5.51685601    -0.59042544     0.37928275
H     -4.92234642     0.72583060     0.30977611
O      4.06186608    -0.27917750     0.01798692
H      3.33884621    -0.67907322     0.32230976
H      3.92044951     0.60584163     0.24977524
O      1.86975658    -1.58019460     3.79373840
H      1.97516809    -1.58164402     2.81174536
H      2.65528173    -1.30507505     3.99175348
O     -0.34237910     2.43673074     3.67038083
H      0.27820770     2.92534847     3.93979730
H     -0.33248000     1.45358681     4.04712205
O     -0.50752643     2.57739495    -3.65330937
H      0.45193215     3.01184611    -3.14491474
H     -0.40369672     1.69144947    -3.34430440
O     -2.50165886     3.67384181     0.08154645
H     -3.22733578     3.22840554     0.43982103
H     -2.61723545     3.71200342    -0.91274784
O      2.08195724     3.61514257     0.01767264
H      1.22897488     3.35931215     0.22950488
H      2.01812723     3.52551711    -0.84303771
O     -0.25816438    -0.02738735     4.44864585
H     -0.16524538    -0.19742093     5.41566743
H      0.61794868    -0.48692342     4.13544646
O     -2.80978774    -1.66391408     3.70063789
H     -1.92439320    -1.19275319     4.01140577
H     -2.63332366    -1.71734709     2.73542166
O      3.88043140    -0.30195326    -2.77551820
H      4.00990225    -0.25274763    -1.65660094
H      4.92501819    -0.70792343    -2.96844733
O      1.76791204     3.67863694    -2.68277500
H      2.58118476     3.22867078    -2.90939897
H      1.83062177     4.68068869    -2.95994333
60
iceXI n=20 T=50K rep=4
O     -0.26969393    -0.06197903     0.10472307
H     -0.44222601     0.83954534     0.38280597
H     -1.03559009    -0.52742890     0.20045328
O     -0.13157021     2.23494119     0.95678442
H     -1.03810054     2.69884528     0.64245564
H     -0.25023784     2.42982401     1.91108530
O     -0.38387920    -0.05967451    -2.65974672
H     -0.54448686    -0.13001893    -1.83288461
H      0.37026151    -0.91301071    -2.92335058
O     -2.58171117    -1.50467061     1.10547320
H     -3.52658704    -1.02169686     0.78908469
H     -2.62572517    -2.35992106     0.82610213
O      2.03593150    -1.53081840     0.99651019
H      1.12855399    -0.95160075     0.62224463
H      1.99399534    -2.42549657     0.58978425
O      1.80695556    -1.51271164    -3.59238877
H      1.94857296    -1.59299896    -4.56706063
H      2.66126609    -1.15822737    -3.30031408
O     -2.65917122    -4.05509887     0.15392297
H     -3.45767998    -4.71678739     0.39450701
H     -2.58398900    -4.12068450    -0.77188205
O      1.93879294    -4.20820601     0.11696341
H      1.09409126    -4.66083125     0.49514892
H      2.13984924    -4.27103731    -0.76785969
O     -2.61750218    -1.51830508    -3.45987574
H     -1.85350666    -1.16582574    -3.31437294
H     -2.70837959    -1.41605188    -4.32578877
O     -4.76653546    -0.11546905    -0.00694986
H     -5.40685852    -0.67873290     0.41267667
H     -4.68015247     0.79822613     0.34800895
O      4.22161470    -0.14399571     0.01876848
H      3.39914919    -0.70450902     0.28582496
H      4.13512216     0.86248410     0.47383591
O      2.11530180    -1.58327875     3.86365978
H      1.89993608    -1.49463491     2.79311528
H      2.83766843    -1.08720853     4.19776289
O     -0.31376110     2.69727120     3.81782230
H      0.38163880     2.95375118     4.17440185
H     -0.22095945     1.72696504     4.13638538
O     -0.40973324     2.48370839    -3.50283182
H      0.58486935     2.90113723    -3.16064347
H     -0.34082564     1.60595274    -3.22625216
O     -2.54144979     3.77444496     0.05443565
H     -3.26253093     3.23377684     0.43367248
H     -2.58113715     3.65011871    -0.73880271
O      1.80545046     3.80946164     0.07086474
H      1.09139202     3.18974750     0.26524427
H      1.52470958     3.64139019    -0.81582651
O     -0.25409023    -0.11212598     4.48306155
H     -0.25359191     0.01194759     5.37597346
H      0.69058037    -0.44112441     4.07746427
O     -2.71781401    -1.45155626     3.79795934
H     -1.87363271    -0.94865311     4.13689371
H     -2.39724129    -1.56248046     2.78420043
O      4.06036428    -0.29480491    -2.83154962
H      4.22629320    -0.23368072    -1.75023659
H      4.97133815    -0.50917227    -2.97848102
O      1.89746942     3.77513385    -2.69865236
H      2.49283438     3.28895687    -2.89472434
H      1.74913081     4.58956982    -2.87650763
60
iceXI n=20 T=50K rep=5
O     -0.22766534    -0.22888200     0.03729713
H     -0.19427936     0.64838765     0.21798381
H     -1.09170290    -0.52839418     0.23206194
O     -0.21007940     2.29726995     0.95194607
H     -1.10965731     2.76378126     0.65938838
H     -0.09497522     2.40109676     1.86670030
O     -0.25645101    -0.09945867    -2.78981206
H     -0.45797945    -0.17524796    -1.92893479
H      0.37097641    -0.63394979    -3.16294145
O     -2.70580783    -1.39098977     1.24974402
H     -3.56828002    -1.12876430     0.98201558
H     -2.55827559    -2.28619040     0.78259463
O      1.78007892    -1.51178996     1.10045608
H      0.96057323    -1.01888327     0.80014287
H      1.77828604    -2.36627971     0.67729686
O      1.72178898    -1.43788041    -3.80699261
H      1.99558612    -1.58543984    -4.60164673
H      2.41045485    -1.15051127    -3.24575952
O     -2.30593555    -4.01313931     0.08141360
H     -3.19945732    -4.48785231     0.32847956
H     -2.57868805    -3.84885348    -0.86045119
O      2.00511197    -4.07899281     0.24223537
H      1.03323544    -4.52990504     0.41249412
H      1.95656141    -3.91713592    -0.71179286
O     -2.56282342    -1.53132828    -3.71194853
H     -1.85324804    -1.22733259    -3.09845752
H     -2.31570198    -1.15405642    -4.39985747
O     -4.77864783    -0.35771098    -0.01082559
H     -5.67361526    -0.87036978     0.43066831
H     -4.79915404     0.50568520     0.44267347
O      4.14946502    -0.15532797     0.23906349
H      3.38918626    -0.42207980     0.31725931
H      4.25263946     0.89862488     0.20388224
O      2.00676033    -1.43654681     3.81333633
H      1.87627302    -1.58091151     2.94467872
H      2.68305791    -1.05383385     4.03902188
O     -0.47794352     2.42130304     3.80915087
H      0.47524572     2.83917056     4.04584896
H     -0.12250140     1.59738522     4.12499823
O     -0.45115092     2.40096571    -3.66012658
H      0.48413027     2.73168457    -3.39745063
H     -0.28274645     1.48760587    -3.27091259
O     -2.64518511     3.69110512    -0.09597527
H     -3.36280904     3.10986615     0.27329417
H     -2.56703667     3.67608235    -0.92212424
O      1.94149987     3.62639027     0.25067879
H      1.07014736     3.26823451     0.42897115
H      1.78426018     3.52570870    -0.83392629
O     -0.45516173    -0.19111229     4.43374373
H     -0.38421375    -0.13143107     5.63795558
H      0.43641070    -0.75210454     4.45062159
O     -2.60417380    -1.47709169     3.90375290
H     -1.92365513    -0.94605700     4.26271108
H     -2.59753397    -1.56362256     3.03134059
O      4.13553760    -0.10004378    -2.90894033
H      4.13220452    -0.11232418    -2.04131547
H      4.74358473    -0.68444455    -3.05041671
O      1.88557567     3.64296904    -2.62771897
H      2.70108725     3.01428341    -3.02138974
H      1.93639555     4.50888824    -3.06585600
60
iceXI n=20 T=150K rep=0
O     -0.32609600    -0.07741097    -0.17247366
H     -0.35280456     0.72891229     0.40336017
H     -1.07483265    -0.76398597     0.44202403
O     -0.29173181     2.55647953     0.97785558
H     -0.91685787     2.82843916     0.59003572
H     -0.29510465     2.45073012     1.91968027
O     -0.33173807    -0.12381253    -2.89567702
H     -0.54707776    -0.04795594    -1.73734867
H      0.44325461    -0.67725782    -2.93927102
O     -2.64143173    -1.40380280     1.13005123
H     -3.32772413    -1.03447788     0.76243484
H     -2.59482370    -2.34191751     0.81989873
O      2.02387116    -1.58461436     1.05403204
H      1.14745830    -1.05189301     0.69385461
H      1.92385125    -2.34381659     0.76241503
O      1.77146008    -1.66812248    -3.56437746
H      1.79636618    -1.65766202    -4.51534785
H      2.49359592    -1.23891103    -3.26179592
O     -2.69729973    -3.81888335     0.07158594
H     -3.50254588    -4.51100076     0.38811107
H     -2.59312864    -3.93939321    -0.83384803
O      1.92336673    -4.05526732     0.01513799
H      1.23282748    -4.54961014     0.28924820
H      2.05007105    -4.16159102    -0.95353187
O     -2.62994438    -1.48914129    -3.67460198
H     -1.95651732    -1.01662300    -3.40755462
H     -2.51036337    -1.44984669    -4.62401238
O     -4.61648711    -0.20725063     0.14861130
H     -5.45262996    -0.77088044     0.64757254
H     -4.72879810     0.76540036     0.38141373
O      4.08237796    -0.45141961    -0.04445813
H      3.32818252    -0.80016129     0.27009853
H      4.00235427     0.55710094     0.19561434
O      1.71082825    -1.57996006     3.82534189
H      1.80646048    -1.54667774     2.97876995
H      2.53094765    -0.97862747     4.15665010
O     -0.49722404     2.54574686     3.62086769
H      0.34356825     2.89875990     4.02759908
H     -0.40570505     1.62104462     3.95847408
O     -0.36898982     2.37357819    -3.62555098
H      0.45365602     2.84277077    -3.12448941
H     -0.37206959     1.49849367    -3.45388193
O     -2.54920285     3.63157497     0.11270891
H     -3.36463856     3.19502264     0.31936002
H     -2.62655705     3.65094805    -0.92770061
O      1.96476791     3.68427254     0.20690135
H      1.22264233     3.24991007     0.47495212
H      1.85968391     3.62821173    -0.69855248
O     -0.22727213    -0.04874706     4.61965176
H     -0.13782129    -0.07670268     5.52145314
H      0.61284685    -0.55914425     4.31656230
O     -2.75766120    -1.60534229     3.70897185
H     -1.93201308    -1.12826745     4.16301705
H     -2.53064084    -1.57662006     2.98697710
O      4.21944557    -0.21726611    -2.65849331
H      4.08500276    -0.17682637    -1.75720373
H      4.90051373    -0.61407487    -2.93545124
O      1.89737046     3.71033321    -2.60734055
H      2.58613575     3.16971206    -2.96843187
H      1.85314808     4.40699554    -2.97176728
60
iceXI n=20 T=150K rep=1
O     -0.41530811    -0.32398645     0.19152229
H     -0.42238137     0.53114560     0.29175537
H     -1.34030038    -0.41493413     0.43283304
O     -0.18054857     2.33079584     0.94943375
H     -1.02529467     2.91095354     0.71174705
H     -0.18283485     2.32156944     1.87562235
O     -0.45196303    -0.07918568    -2.62665419
H     -0.24964995    -0.40431119    -1.59909699
H      0.23418605    -0.47530979    -3.00749990
O     -2.47481370    -1.58063595     0.96993401
H     -3.31977890    -0.94195131     0.77406619
H     -2.65651268    -2.42559255     0.73163610
O      1.89976941    -1.40034033     1.01788005
H      1.11003972    -0.97432090     0.51909722
H      1.95496787    -2.29122114     0.73101066
O      1.84798257    -1.68667453    -3.48777188
H      1.93792681    -1.66230543    -4.51021712
H      2.55190946    -1.06802839    -3.08611886
O     -2.58303278    -4.05275638     0.22001453
H     -3.46214897    -4.48039087     0.51846635
H     -2.65846381    -3.98898606    -0.70680242
O      1.99367339    -3.98751430     0.00451340
H      1.13380617    -4.45056155     0.34765921
H      1.94395369    -4.04466426    -0.88600088
O     -2.59195901    -1.30513586    -3.42771771
H     -1.70934555    -0.87851969    -3.22718597
H     -2.52628568    -1.33337458    -4.39595179
O     -4.75346520    -0.11466144     0.13682601
H     -5.60428044    -0.60703735     0.42557363
H     -4.69667337     0.77600590     0.43829762
O      4.23667638    -0.16809804     0.11452856
H      3.41156202    -0.55198292     0.40525709
H      4.24574228     0.71508712     0.45976037
O      1.89397357    -1.37463645     3.73661654
H      1.93065807    -1.43671761     2.78349382
H      2.60748234    -0.99525604     3.94011225
O     -0.40352870     2.48965405     3.62504559
H      0.44297167     2.82415761     3.80679353
H     -0.39654277     1.63205486     4.10265469
O     -0.49387841     2.39345775    -3.58092740
H      0.29021646     2.84161998    -3.50989141
H     -0.38716625     1.57115590    -3.13961162
O     -2.41864275     3.72108428     0.16248279
H     -3.21713247     3.27257218     0.52847576
H     -2.56455128     3.72970917    -0.87111801
O      2.04111397     3.73063636     0.12998653
H      1.27746002     3.30049266     0.42378574
H      1.96792644     3.71088856    -0.86360828
O     -0.35039666    -0.11668945     4.64458823
H     -0.22303146    -0.05728291     5.53706348
H      0.42692284    -0.49569761     4.36371217
O     -2.49303467    -1.47932144     3.74619089
H     -1.84455473    -0.97905349     3.98843231
H     -2.71204437    -1.50322187     2.82257697
O      4.09562510     0.00233384    -2.72047106
H      4.15948688    -0.17141863    -1.78545572
H      5.00859738    -0.44203977    -3.04651512
O      1.88529598     3.65073414    -2.75958383
H      2.63927808     3.17733674    -3.03408955
H      1.89350478     4.53337265    -3.08821825
60
iceXI n=20 T=150K rep=2
O     -0.15453242    -0.42169008     0.11214709
H     -0.14835680     0.55544007     0.34150931
H     -0.99169371    -0.78290998     0.51322154
O     -0.40957715     2.19742742     0.92379345
H     -1.02587143     2.78686039     0.69969288
H     -0.37815986     2.29223183     1.93404177
O     -0.37813801    -0.07001611    -2.77311453
H     -0.46030504    -0.20296105    -1.78905125
H      0.45110036    -0.60108541    -3.00047193
O     -2.59901766    -1.23722317     1.02149222
H     -3.37123391    -0.87307818     0.73545768
H     -2.68831210    -2.16065700     0.70265457
O      1.99527157    -1.52097825     1.06199668
H      1.27344098    -1.08898586     0.64722527
H      1.93766933    -2.44702625     0.76830727
O      1.87985216    -1.52443489    -3.63699582
H      1.85603505    -1.46482900    -4.60211681
H      2.57330999    -1.07355710    -3.37459809
O     -2.54239119    -3.96868899     0.27874672
H     -3.26832605    -4.44188988     0.47285772
H     -2.63611938    -4.06687790    -0.72020662
O      1.97638364    -4.17256706    -0.03710129
H      1.17125062    -4.51376595     0.30032829
H      1.91477656    -4.28523551    -0.91680938
O     -2.67301521    -1.34763095    -3.40450822
H     -2.00902320    -0.96710051    -3.18933084
H     -2.67597178    -1.34653725    -4.50744181
O     -4.76029906    -0.15640952    -0.07108055
H     -5.57345906    -0.49660047     0.35017562
H     -4.78965500     0.72729715     0.31015017
O      4.09676355    -0.24834319     0.05706708
H      3.28467633    -0.70315233     0.36339452
H      4.01190270     0.69972460     0.34623695
O      1.80224800    -1.61261344     3.80674657
H      1.88874556    -1.55683221     2.85218109
H      2.63032042    -1.04336924     4.15710512
O     -0.37252185     2.46382259     3.71432660
H      0.50984340     2.84879331     3.94805725
H     -0.30693047     1.56305983     4.07277202
O     -0.43085527     2.46394294    -3.74081156
H      0.33447573     2.83567654    -3.36143335
H     -0.52243169     1.58707429    -3.20354396
O     -2.48082140     3.58818676     0.06511593
H     -3.32125801     3.22853483     0.32874414
H     -2.55148071     3.59794466    -0.85248586
O      1.87104742     3.86005651     0.02807001
H      1.03071509     3.33417769     0.33638196
H      1.80088114     3.83884551    -0.89680524
O     -0.37142781    -0.17801194     4.65425995
H     -0.35847443    -0.21381897     5.62471276
H      0.45562655    -0.61772505     4.33531036
O     -2.70092165    -1.53172562     3.77775501
H     -1.96449708    -0.95642868     4.01312756
H     -2.68211082    -1.50989143     2.69792956
O      4.19754771    -0.01406270    -2.69123040
H      4.11504779     0.01868716    -1.68226711
H      4.99012699    -0.47320585    -3.02309241
O      1.90889661     3.78966675    -2.76341928
H      2.76879984     3.41726994    -2.96401393
H      1.95149663     4.73902478    -3.03617814
60
iceXI n=20 T=150K rep=3
O     -0.26676988    -0.27649110     0.22194323
H     -0.24625653     0.71683918     0.46353825
H     -1.13149029    -0.51740795     0.59293960
O     -0.27923830     2.44468574     0.94191210
H     -1.08676270     2.78268025     0.51356582
H     -0.32316123     2.36532398     1.78087157
O     -0.34465830    -0.13976316    -2.77320075
H     -0.36857880    -0.18069245    -1.84789507
H      0.39878558    -0.60102716    -3.10671038
O     -2.46442798    -1.35916272     1.03712396
H     -3.21894519    -0.95457898     0.67686494
H     -2.46376782    -2.27416075     0.84033324
O      1.96274166    -1.50799801     1.01634649
H      1.19777049    -1.03110274     0.79297313
H      1.93182556    -2.42538084     0.87007813
O      1.92034934    -1.25475202    -3.59496568
H      1.80036064    -1.22114965    -4.49274758
H      2.61479624    -0.86033145    -3.31413558
O     -2.47189118    -4.11406775     0.00486200
H     -3.22219771    -4.58578012     0.28363432
H     -2.41901400    -4.20819603    -0.92457504
O      1.97648308    -4.16140028     0.25705118
H      1.13776031    -4.55751130     0.52726332
H      1.89115611    -4.13023318    -0.70749904
O     -2.56129955    -1.46692063    -3.48073382
H     -1.69296110    -1.04424102    -3.30435899
H     -2.56929442    -1.37540999    -4.54924124
O     -4.76815383    -0.34597809     0.08623596
H     -5.57092636    -0.74467361     0.43253782
H     -4.78707819     0.69225267     0.47158581
O      4.29845474    -0.24780328     0.14708601
H      3.49992937    -0.57602660     0.39146939
H      4.35244341     0.68154764     0.38300319
O      2.00803206    -1.59573279     3.72805298
H      1.98498729    -1.53211244     2.80778465
H      2.79881100    -1.01448226     3.96075641
O     -0.42786482     2.44469778     3.66847492
H      0.40486650     2.81280452     4.13841615
H     -0.41811062     1.48867871     3.95960898
O     -0.42917971     2.49111617    -3.71491213
H      0.32789549     2.89888279    -3.38876628
H     -0.36070991     1.56076025    -3.41767836
O     -2.49169650     3.81062689     0.21684742
H     -3.26024310     3.26637914     0.54278040
H     -2.57383108     3.90632174    -0.78891866
O      2.03637943     3.87473845     0.10433819
H      1.19109343     3.51209348     0.40467942
H      2.07602718     3.74301611    -0.89435337
O     -0.50041523     0.04627702     4.59983259
H     -0.48355974    -0.11412762     5.57874635
H      0.29736377    -0.51443796     4.29311222
O     -2.63063415    -1.58679577     3.66570003
H     -1.93131476    -1.16316028     4.01379990
H     -2.51818250    -1.47532695     2.65881835
O      4.20552165    -0.13744169    -2.69492401
H      4.04612897    -0.16779993    -1.76273746
H      5.02923863    -0.60084748    -2.78707954
O      1.95364579     3.67640638    -2.65468467
H      2.67513818     3.11551355    -3.05936750
H      1.80975231     4.53569599    -3.05417304
60
iceXI n=20 T=150K rep=4
O     -0.24332217    -0.13531832     0.09524964
H     -0.35261406     0.55769607     0.54329764
H     -1.13107466    -0.55641159     0.40643260
O     -0.28925731     2.33452364     1.18545679
H     -1.04210067     2.95340670     0.88220324
H     -0.28248790     2.22176144     2.10266955
O     -0.23147742    -0.12440142    -2.52022323
H     -0.31601295    -0.12765999    -1.74312618
H      0.51563499    -0.46772243    -2.89315704
O     -2.48813281    -1.44635000     1.03981128
H     -3.22538345    -1.18586855     0.59377244
H     -2.43615064    -2.51325160     0.65295324
O      2.09280993    -1.36131263     0.99634412
H      1.10563636    -0.92781419     0.73791004
H      2.12909705    -2.21753336     0.62087366
O      1.89398452    -1.50994890    -3.47756533
H      1.92459566    -1.60988013    -4.47932038
H      2.69154188    -1.11512977    -3.25314560
O     -2.44992623    -4.07926629     0.05882410
H     -3.28406818    -4.43108187     0.42610434
H     -2.54609628    -4.12924754    -0.85801000
O      2.19773212    -4.15343384     0.21015119
H      1.17446421    -4.65701768     0.40729764
H      2.11849638    -4.33005522    -0.87122971
O     -2.54583121    -1.62837723    -3.67181079
H     -1.99881622    -1.09984336    -3.23074791
H     -2.59651499    -1.56446401    -4.73561208
O     -4.87232973    -0.30542318    -0.22723529
H     -5.66370796    -0.54515079     0.39186250
H     -4.80838677     0.62554060     0.25243660
O      4.19693296    -0.16643327     0.11170914
H      3.34866717    -0.58125764     0.41069527
H      4.10244461     0.75892531     0.29938832
O      1.90335540    -1.47308602     3.71337810
H      2.11981880    -1.34049327     2.78728779
H      2.55785131    -1.15602007     4.28691540
O     -0.49992105     2.59841856     3.77899794
H      0.45768056     2.88564566     4.01841464
H     -0.25314125     1.81809241     4.02899809
O     -0.31845545     2.59982826    -3.91335892
H      0.43948085     2.81297061    -3.39435578
H     -0.34821783     1.48292005    -3.37976346
O     -2.54171009     3.68058128     0.10232327
H     -3.13473080     3.13970120     0.51421701
H     -2.23388585     3.73876809    -1.01815450
O      1.95905517     3.77183169     0.11502840
H      0.96460466     3.39457178     0.40288937
H      1.71409412     3.71796963    -1.02072352
O     -0.28848232    -0.12651478     4.66382169
H     -0.09222874    -0.07010247     5.69574079
H      0.41324803    -0.53870904     4.23140978
O     -2.64842471    -1.59916159     3.75964872
H     -1.90707471    -0.87022147     4.11318351
H     -2.57176385    -1.42377761     2.90072234
O      4.15987704    -0.19388963    -2.65878312
H      4.17306525    -0.36811874    -1.56359125
H      4.93596435    -0.48205903    -3.02692714
O      1.79338647     3.69816503    -2.61741241
H      2.68270671     3.16999133    -3.04186397
H      1.88738702     4.65910439    -2.97062551
60
iceXI n=20 T=150K rep=5
O     -0.47717869    -0.22181592    -0.17002112
H     -0.41550850     0.74074347    -0.03198989
H     -1.15012112    -0.54018022     0.34326385
O     -0.25670027     2.27460209     0.83655433
H     -0.87583619     2.81917074     0.66633937
H     -0.18325867     2.42585384     1.95792201
O     -0.47796718     0.05723848    -2.75100099
H     -0.52780317    -0.05799772    -1.78816006
H      0.43034220    -0.72807599    -3.07728800
O     -2.53656031    -1.40457461     0.85957063
H     -3.23755167    -1.17152108     0.40412690
H     -2.61747284    -2.47022192     0.87881855
O      1.85163459    -1.49510708     1.22238740
H      1.09971397    -0.99068938     0.88458799
H      1.94593474    -2.35043010     0.87963353
O      2.00954560    -1.50693558    -3.61463805
H      1.88108951    -1.45798147    -4.72690821
H      2.70566685    -1.15162926    -3.45499606
O     -2.52371791    -3.89898366     0.14391440
H     -3.42541323    -4.45111782     0.65782603
H     -2.71596742    -4.01641153    -0.69549898
O      1.82824817    -3.77457144     0.20313694
H      1.33739502    -4.44876969     0.66973439
H      1.76879277    -4.04330067    -0.99670211
O     -2.35031926    -1.67634101    -3.61018908
H     -1.67689910    -1.11307075    -3.24615250
H     -2.31168058    -1.44318655    -4.55973219
O     -4.67218695    -0.10878552     0.13096223
H     -5.65643188    -0.56852170     0.64809566
H     -4.81361560     0.75454626     0.12544343
O      4.09426794    -0.18262020     0.01943522
H      3.42070831    -0.57639542     0.35679591
H      4.15997146     0.57739832     0.34853535
O      1.65385272    -1.42659663     3.73741306
H      1.78040494    -1.54162547     2.66691280
H      2.43264244    -0.92649944     4.10931425
O     -0.39191084     2.41837274     3.71927814
H      0.29603411     2.62650292     4.11897031
H     -0.32914388     1.60648155     3.98567716
O     -0.33298413     2.55225155    -3.59343031
H      0.36931211     2.90880964    -3.38421330
H     -0.06949445     1.65080058    -3.20080289
O     -2.37574740     3.65304248     0.04258720
H     -3.24086958     3.27354256     0.27268195
H     -2.56885152     3.59750003    -0.93467249
O      2.24344695     3.57430397     0.07440250
H      1.37264972     3.20310417     0.55022710
H      2.28290680     3.54247552    -0.76123493
O     -0.48401801    -0.18144043     4.55022927
H     -0.21745442    -0.02977489     5.48194229
H      0.54121478    -0.58664609     4.19126098
O     -2.64944323    -1.39046654     3.66601358
H     -1.80595032    -0.88643846     3.73815973
H     -2.48371819    -1.48033720     2.67648605
O      4.21709237    -0.12462981    -2.81239147
H      4.06265471    -0.29758735    -1.77737189
H      4.80105219    -0.56473273    -3.08887237
O      2.00663292     3.64312267    -2.47485050
H      2.59844941     3.19918115    -2.79216314
H      2.02905310     4.56059885    -2.99077239
72
iceXI n=24 T=50K rep=0
O     -0.23389726    -0.31560396     0.10836711
H     -0.19304770     0.50484160     0.71809876
H     -1.17841659    -0.75146107     0.46513352
O     -0.22857860     2.14194445     1.04530325
H     -1.05024990     2.62095489     0.61658742
H     -0.48004478     2.12295709     2.07085171
O     -0.36816398    -0.32370730    -2.60630895
H     -0.39891260    -0.43420123    -1.45667911
H      0.34173456    -0.72168566    -2.81325234
O     -2.58191809    -1.55718956     1.08369104
H     -3.42849022    -1.33887635     0.82685127
H     -2.52797977    -2.68317697     0.75122717
O      2.07505481    -1.58888937     1.07831916
H      1.16419891    -1.26184191     0.83493727
H      1.84167939    -2.51820465     0.68501317
O      2.05894052    -1.59220770    -3.54932309
H      2.01516913    -1.69905948    -4.32656641
H      2.86705885    -1.22067742    -3.20801595
O     -2.42452255    -4.07989661     0.23836932
H     -3.28197101    -4.66043956     0.38857302
H     -2.56814150    -4.20083872    -0.71616292
O      2.08028209    -4.32022466     0.37296900
H      1.21278482    -4.77222557     0.61367911
H      1.95524457    -4.20134729    -0.75585662
O     -2.53177520    -1.74541843    -3.49712804
H     -1.71524412    -1.32641052    -3.32059966
H     -2.39172615    -1.84061088    -4.41453368
O     -4.63560792    -0.61702674     0.13669088
H     -5.65118198    -0.95586430     0.56521704
H     -4.50765016     0.39251248     0.49763833
O      4.02901467    -0.39513364    -0.05697104
H      3.32668817    -0.84903579     0.48417543
H      4.07721104     0.51401679     0.50642446
O      1.95530913    -1.71546021     3.88795240
H      2.11799496    -1.72928897     2.97265943
H      2.64060538    -1.24571117     4.35907412
O     -0.20196804     2.31174838     3.70984123
H      0.66889009     2.75970738     4.06822688
H     -0.21634779     1.31172695     4.22985321
O     -0.18528788     2.10116234    -3.52178845
H      0.53892591     2.74009946    -3.20208310
H     -0.11254731     1.33964584    -3.26665128
O     -2.56124679     3.59163978     0.13953176
H     -3.29832226     2.96182969     0.66349093
H     -2.50992230     3.79800466    -0.60223981
O      2.12596609     3.70690229     0.33275227
H      1.44872181     3.06456087     0.53920292
H      1.90687515     3.32013946    -0.61783691
O     -0.25145091    -0.40946545     4.84842682
H     -0.27250492    -0.43266904     5.85478795
H      0.37201495    -0.89037493     4.60983268
O     -2.48198466    -1.76331692     3.80186403
H     -1.63884366    -1.33521172     4.10596490
H     -2.46385277    -1.62032888     2.84561396
O      4.30693103    -0.53173170    -2.48512919
H      4.20058000    -0.54703479    -1.53969901
H      4.98679872    -0.82515498    -2.93580223
O      1.87251562     3.58447827    -2.50002638
H      2.68928536     3.14214877    -2.67946462
H      1.97579969     4.35013334    -2.78216714
O      2.11244056    -4.50105900    -2.49003266
H      2.77479950    -4.96134971    -2.82161254
H      1.90940435    -3.55982067    -2.81275089
O      4.39615567     2.13176646     1.04458433
H      4.15299077     2.25715854     2.11079278
H      3.60377270     2.61549284     0.59944985
O     -4.86765422     2.51010939     1.16458185
H     -4.80007766     2.36951567     2.24909522
H     -5.50227071     2.83537679     0.85730837
O     -2.52510050     3.64034263    -2.40596372
H     -1.93818993     3.04873290    -2.56234469
H     -2.63350777     4.38282208    -2.76513623
72
iceXI n=24 T=50K rep=1
O     -0.19556724    -0.46722819     0.12830983
H     -0.38836706     0.42974710     0.60463922
H     -0.97456837    -0.97204984     0.57017536
O     -0.16981303     1.99738718     1.05695690
H     -0.85349013     2.66645160     0.83555506
H     -0.22611615     2.07076031     2.06309869
O     -0.15835845    -0.47492385    -2.40119550
H     -0.25296333    -0.52817794    -1.62168907
H      0.48994283    -0.92461668    -2.80009807
O     -2.40010773    -1.71904042     1.18295329
H     -3.12802133    -1.21100096     0.89286078
H     -2.52833044    -2.58322278     0.85623725
O      1.96929278    -1.65908493     1.26650842
H      1.27738689    -1.13026511     0.80177983
H      1.83290461    -2.64922554     0.85821075
O      1.88319545    -1.60492336    -3.46829962
H      1.86262400    -1.64512789    -4.31416591
H      2.63526014    -1.09216328    -3.11975056
O     -2.45979005    -4.27545397     0.18342413
H     -3.18488168    -4.82501527     0.52030164
H     -2.42920357    -4.23438455    -0.62318502
O      2.16184094    -4.20141883     0.42283694
H      1.35419550    -4.51485816     0.63603803
H      2.00306302    -4.32140875    -0.56994143
O     -2.57082090    -1.82449286    -3.51436669
H     -1.84318656    -1.31770314    -3.22293520
H     -2.36684790    -1.77747019    -4.44255787
O     -4.72121771    -0.34827513     0.04774557
H     -5.38471895    -0.89764936     0.47255725
H     -4.80298509     0.45736848     0.53215904
O      4.25430041    -0.39469061     0.20056607
H      3.58670255    -1.05394809     0.49175506
H      4.24835245     0.40778355     0.49440249
O      2.14598700    -1.80556248     3.91168952
H      1.93072842    -1.70934103     3.05835038
H      2.85050380    -1.32848578     4.10155858
O     -0.33630128     2.25328627     3.85722426
H      0.51507163     2.58342285     4.28437591
H     -0.27377130     1.38639340     4.31558429
O     -0.29036303     2.15306337    -3.30889695
H      0.44629846     2.61796178    -3.16287760
H     -0.24864990     1.37211905    -2.99214933
O     -2.58536362     3.44949915     0.21563986
H     -3.20783010     3.03284662     0.49352387
H     -2.55806941     3.51338308    -0.71175043
O      2.08054164     3.48345652     0.20428763
H      1.24544651     3.05976604     0.55670119
H      1.91047050     3.41275104    -0.63076149
O     -0.31161447    -0.31736892     4.71717928
H     -0.17332353    -0.47889441     5.68212048
H      0.42497359    -0.82547703     4.59505902
O     -2.49438129    -1.76513991     3.94796848
H     -1.72908272    -1.26352451     4.27039492
H     -2.56510129    -1.56596064     2.96441478
O      4.07018240    -0.44899783    -2.61581781
H      4.16301211    -0.35181655    -1.65480536
H      4.78691671    -0.80417426    -2.84124325
O      1.81721422     3.56412130    -2.46253901
H      2.58373690     3.00028391    -2.87655055
H      1.79356787     4.26681596    -2.80171427
O      1.88513420    -4.28790457    -2.53107597
H      2.72434412    -4.57401644    -2.94350699
H      1.87995273    -3.23628366    -2.86985607
O      4.29584255     2.11286195     1.09915479
H      4.24345167     2.09620263     2.07336991
H      3.50134026     2.53963514     0.82411149
O     -4.82620918     2.09792360     0.92501256
H     -4.80078143     2.18302037     1.93402932
H     -5.59486417     2.50530849     0.68353820
O     -2.65600836     3.56393660    -2.40706007
H     -1.84563502     3.04247578    -2.72939040
H     -2.52863778     4.41041704    -2.78375885
72
iceXI n=24 T=50K rep=2
O     -0.24661400    -0.35539446     0.21900216
H     -0.22083513     0.52942362     0.58719974
H     -1.08312659    -0.74215383     0.53019207
O     -0.22039165     2.06852888     0.95129289
H     -0.97918947     2.51732344     0.74320707
H     -0.33305729     2.12549993     1.96022758
O     -0.12998429    -0.42015832    -2.61469644
H     -0.13620146    -0.30961847    -1.71982052
H      0.59860345    -0.86322245    -2.89601329
O     -2.44374451    -1.81544945     1.11959642
H     -3.27664505    -1.36846222     0.78265260
H     -2.50499454    -2.76965911     0.94149542
O      2.07353230    -1.59432717     1.18086934
H      1.28074938    -1.24075122     0.82651681
H      2.07258862    -2.44003674     0.85177002
O      1.96391742    -1.73045454    -3.25959306
H      1.99730245    -1.63721949    -4.15421640
H      2.80041096    -1.21779102    -3.02275727
O     -2.50431079    -4.14351682     0.31856731
H     -3.26302263    -4.58688759     0.56968446
H     -2.41855481    -4.20134813    -0.69416398
O      1.89215709    -4.56940072     0.30167858
H      1.17016077    -4.88435026     0.53907703
H      2.03135609    -4.59171510    -0.63973958
O     -2.53064594    -1.52122546    -3.32384830
H     -1.75454830    -1.09274413    -3.07526778
H     -2.40727260    -1.64294343    -4.25895590
O     -4.78227306    -0.36484594     0.28625509
H     -5.55505775    -0.76647197     0.58629712
H     -4.74620186     0.49030465     0.55796537
O      4.35977622    -0.33065326     0.10115210
H      3.61207360    -0.88581563     0.43375043
H      4.24540539     0.53164621     0.39193921
O      1.85910777    -1.66030335     3.94353781
H      1.84945677    -1.68497742     2.93362481
H      2.65945121    -1.23580776     4.22754286
O     -0.31197439     2.11381166     3.99992284
H      0.53784572     2.56005154     4.30943654
H     -0.30952100     1.23730602     4.40067449
O     -0.33414311     2.26439830    -3.55415376
H      0.46158392     2.65703373    -3.15793797
H     -0.26774715     1.42239010    -3.16071521
O     -2.52569481     3.50086459     0.34780271
H     -3.36707090     3.06907761     0.48858084
H     -2.45709983     3.52249719    -0.60946982
O      1.90524625     3.49727734     0.35981090
H      1.14057833     3.00637343     0.57234667
H      1.84834264     3.55195666    -0.60768484
O     -0.28583614    -0.45491702     4.79124765
H     -0.25955661    -0.46740420     5.69986513
H      0.55413555    -0.85100131     4.58973341
O     -2.41765529    -1.74682313     4.02983404
H     -1.58534151    -1.37767144     4.17156706
H     -2.56128635    -1.56200839     3.07992350
O      3.95175424    -0.34992765    -2.64271881
H      4.11350728    -0.42699310    -1.65401957
H      4.78956522    -0.86740769    -2.87890639
O      1.95631526     3.49619807    -2.49909608
H      2.77683982     3.05946347    -2.94275991
H      1.94417563     4.40694463    -2.77853243
O      1.94200768    -4.28310015    -2.46122716
H      2.74722231    -4.76281121    -2.79764995
H      1.94849303    -3.38037955    -2.87353912
O      4.16960872     2.17401844     1.10265344
H      4.18170503     2.24889475     2.09776603
H      3.36969705     2.64888238     0.94973924
O     -4.87526089     2.04859187     0.95207636
H     -4.90564917     2.15879085     1.95399875
H     -5.58380640     2.50503691     0.61702607
O     -2.62397032     3.48639602    -2.45278235
H     -1.72232927     3.01903847    -2.79104739
H     -2.57438894     4.34926777    -2.73559401
72
iceXI n=24 T=50K rep=3
O     -0.18773984    -0.37159214     0.17463254
H     -0.19436580     0.44868538     0.58319762
H     -0.94693940    -0.85554681     0.63502541
O     -0.27688235     2.35874904     0.82776146
H     -1.13273964     2.64224860     0.64916505
H     -0.28783534     2.17463938     1.82006019
O     -0.58191319    -0.30559335    -2.60309633
H     -0.51166649    -0.18098222    -1.59107323
H      0.36338362    -0.80849016    -2.87864452
O     -2.55730528    -1.56720872     1.19546671
H     -3.30048445    -1.22083877     0.72617863
H     -2.43514603    -2.58828946     0.79290710
O      2.01752846    -1.70567523     1.08513326
H      1.17809509    -1.26806524     0.76320543
H      2.05297507    -2.48150304     0.73900153
O      1.94459636    -1.55697650    -3.49025664
H      1.91973419    -1.63342237    -4.40908804
H      2.72948010    -1.35826052    -3.08859250
O     -2.54464755    -4.39281624     0.24187284
H     -3.16573342    -4.89869244     0.38839203
H     -2.45317533    -4.26497139    -0.65414921
O      2.17841710    -4.23528103     0.28910328
H      1.16929622    -4.63024373     0.53400041
H      1.96252599    -4.40636777    -0.64697646
O     -2.51358363    -1.80674891    -3.40460314
H     -1.62456095    -1.27129169    -3.19298335
H     -2.53785973    -1.75784933    -4.41941649
O     -4.85762892    -0.27493389     0.25392734
H     -5.41154052    -0.84857277     0.63219974
H     -4.85591749     0.61223448     0.47522881
O      4.09704024    -0.42467767     0.17874151
H      3.43041628    -0.67968788     0.59982126
H      4.15334995     0.49076738     0.61252429
O      2.02539469    -1.75588669     3.88993670
H      2.07362547    -1.60278863     3.06311344
H      2.76561453    -1.20136731     4.20202693
O     -0.22914082     2.20918022     3.75061921
H      0.32472092     2.61918955     4.15173343
H     -0.14534679     1.37119041     4.02923770
O     -0.34176666     2.18016948    -3.53465499
H      0.50691996     2.60053789    -3.12911958
H     -0.25712059     1.21193389    -3.12797312
O     -2.40474826     3.60692945     0.39967308
H     -3.27131693     3.22618378     0.67215999
H     -2.45488184     3.52553119    -0.59825616
O      1.74990376     3.63028888     0.19651153
H      0.88835726     3.11421385     0.58447780
H      1.79958879     3.51811643    -0.69709716
O     -0.18774066    -0.31546965     4.79763911
H     -0.25077616    -0.20561306     5.76729764
H      0.55059343    -0.72543012     4.50064693
O     -2.50128717    -1.64872766     4.07745910
H     -1.57188397    -1.39078470     4.36098212
H     -2.47484530    -1.63427148     3.07056354
O      4.09004724    -0.33015533    -2.65170130
H      4.11603213    -0.39638771    -1.64059153
H      4.84809490    -0.74136457    -2.89993616
O      1.77287208     3.31618387    -2.47738869
H      2.70933487     2.93011837    -2.88998102
H      1.91846086     4.31160521    -2.72220375
O      1.82389884    -4.15476385    -2.57396009
H      2.62858741    -4.68888346    -2.84925183
H      2.00505440    -3.21800235    -2.88555322
O      4.15038587     2.23876861     1.07204567
H      4.24874827     2.24177291     2.03147167
H      3.49953461     2.57246363     0.73771533
O     -4.63844993     2.31607868     1.15649512
H     -4.76627781     2.43921681     2.21120224
H     -5.28769195     2.47491810     0.69551270
O     -2.54725924     3.62566996    -2.58582978
H     -1.86650537     3.01861952    -3.00088674
H     -2.47230730     4.43288559    -2.79264362
72
iceXI n=24 T=50K rep=4
O     -0.28687064    -0.37948904     0.15343414
H     -0.43385337     0.50041509     0.54498213
H     -1.04644327    -0.80049302     0.46325438
O     -0.37450361     2.07119305     0.99340063
H     -1.11638226     2.64954466     0.88042735
H     -0.31644912     2.24452656     2.04465633
O     -0.36142408    -0.41986636    -2.58524868
H     -0.14050825    -0.45600009    -1.64110873
H      0.45903836    -0.80000680    -2.92204749
O     -2.35855070    -1.68108178     1.02274201
H     -3.18275620    -1.31248460     0.74263351
H     -2.47662640    -2.65089760     0.86578101
O      2.05374722    -1.55337256     1.11264068
H      1.21705261    -1.26019901     0.73792428
H      2.09992080    -2.47319681     0.86518105
O      2.02522799    -1.67386162    -3.44641998
H      2.06804137    -1.60163790    -4.36908386
H      2.75014931    -1.23749159    -3.18422563
O     -2.49785570    -4.16642988     0.21847292
H     -3.20236789    -4.53187572     0.52343989
H     -2.47164326    -4.19830674    -0.66254043
O      2.17136520    -4.23527144     0.31243629
H      1.31940533    -4.61021268     0.55451702
H      2.20704307    -4.10706765    -0.52226853
O     -2.65392681    -1.78747253    -3.49134589
H     -1.81935681    -1.30858753    -3.24875251
H     -2.53027270    -1.72087944    -4.43822837
O     -4.80312080    -0.56291811     0.03579510
H     -5.55723252    -0.95590455     0.42034364
H     -4.71796184     0.36850110     0.31266322
O      4.42144558    -0.30793339     0.15286902
H      3.57840837    -0.74611007     0.53836971
H      4.30137670     0.60318468     0.63503155
O      1.86442783    -1.71286421     3.99738663
H      1.87421765    -1.56950797     3.20009319
H      2.64963530    -1.43585405     4.35879543
O     -0.38919139     2.32074165     3.88554713
H      0.31094798     2.77807795     4.13615551
H     -0.32371515     1.46262354     4.29377591
O     -0.28828961     2.31207146    -3.55894836
H      0.41300909     2.80937936    -3.30228036
H     -0.28332974     1.44192804    -3.32322141
O     -2.55843210     3.37876550     0.23485109
H     -3.22475909     2.79325190     0.53863939
H     -2.50255844     3.34850694    -0.74097676
O      2.09358763     3.62234818     0.20862187
H      1.13576237     3.34085360     0.64850190
H      1.92941791     3.38214721    -0.68017166
O     -0.33338300    -0.35360223     4.76609694
H     -0.38498687    -0.28876393     5.75966258
H      0.44031128    -0.65967171     4.46692552
O     -2.70268085    -1.56527624     3.81525260
H     -1.90251308    -1.31493732     4.28249209
H     -2.62788462    -1.54107402     2.92465582
O      4.21768644    -0.50530968    -2.67374376
H      4.25130550    -0.34018173    -1.60906710
H      5.19850844    -0.75105799    -2.88035481
O      1.83252710     3.41394431    -2.50264762
H      2.55400410     3.03900950    -2.93086483
H      1.75981335     4.13762471    -2.77149253
O      2.00488213    -4.36892888    -2.33188654
H      2.65746404    -4.95240680    -2.91083623
H      2.17484896    -3.44013373    -2.80749187
O      4.02827521     2.13323483     1.10033855
H      4.04304837     2.16325631     2.03820727
H      3.45984390     2.68073998     0.77422393
O     -4.62008428     2.25971098     1.04642191
H     -4.73577627     2.13895093     2.02284511
H     -5.41074221     2.82608654     0.80059905
O     -2.58108290     3.46232956    -2.70498532
H     -1.81071546     3.06556563    -2.99897214
H     -2.51298979     4.31090612    -3.02048632
72
iceXI n=24 T=50K rep=5
O     -0.25262460    -0.42573867     0.09405367
H     -0.26259508     0.40310536     0.49266113
H     -1.03892189    -0.78579904     0.36825947
O     -0.21865115     2.39188751     1.00515448
H     -1.06232450     2.81471469     0.67028945
H     -0.26484938     2.45402108     1.99369213
O     -0.37669178    -0.53446960    -2.51060506
H     -0.37291691    -0.49261721    -1.55923275
H      0.30499801    -1.01816044    -2.73899285
O     -2.36117043    -1.75352879     1.07573846
H     -3.18973256    -1.21958632     0.80326956
H     -2.39817186    -2.65463579     0.78610282
O      1.95277934    -1.57052479     1.11394906
H      1.19109125    -1.18742217     0.82244517
H      1.91246418    -2.56774131     0.75801542
O      1.90261251    -1.82610237    -3.33350426
H      1.87158859    -1.75992615    -4.40885317
H      2.74668930    -1.37535677    -3.22790930
O     -2.48302896    -4.25646630     0.20993315
H     -3.39996523    -4.39033402     0.60110227
H     -2.58909129    -4.30986206    -0.65915210
O      2.03052286    -4.13238625     0.22964151
H      1.38285427    -4.71405944     0.54720121
H      1.93228383    -4.20250570    -0.74543537
O     -2.59662318    -1.58876764    -3.44478150
H     -1.92840485    -1.16694636    -3.06647091
H     -2.44539595    -1.68121074    -4.38447790
O     -4.60926639    -0.36728094     0.00209425
H     -5.51058842    -0.79367262     0.44465566
H     -4.71998880     0.48579084     0.36995877
O      4.38068098    -0.34722310     0.10255261
H      3.57633964    -0.82154226     0.44454907
H      4.25244825     0.52052081     0.46424762
O      1.96465779    -1.85149887     3.92868110
H      1.91949291    -1.70635876     2.96623934
H      2.72651394    -1.39656574     4.25541049
O     -0.37153392     2.15297759     3.67948608
H      0.47133860     2.65763920     4.07121953
H     -0.22293827     1.32775057     4.00987141
O     -0.34958661     2.05743313    -3.54516829
H      0.52851745     2.69104991    -3.25152015
H     -0.14258589     1.35237653    -2.98725994
O     -2.42089223     3.49299288     0.31052195
H     -3.38791915     3.18408143     0.55206509
H     -2.52204268     3.43300486    -0.63860781
O      2.07889735     3.59901102     0.14152057
H      1.28688525     3.30055925     0.51571428
H      2.02204550     3.39827518    -0.75150942
O     -0.36896268    -0.20502622     4.74956556
H     -0.35091505    -0.25975803     5.70640020
H      0.55037087    -0.50619156     4.49140864
O     -2.65908580    -1.79577807     3.87066063
H     -1.90080783    -1.27472925     4.16857930
H     -2.61041705    -1.75802190     2.93783656
O      4.18664269    -0.35010709    -2.59764539
H      4.30167062    -0.39393429    -1.57986100
H      4.94366754    -0.92570850    -2.80770167
O      1.88947277     3.38742651    -2.55907592
H      2.68529906     2.96145763    -2.86982180
H      1.97463744     4.30566406    -2.83815681
O      1.94252312    -4.12134926    -2.54784582
H      2.68206717    -4.62984037    -2.82975334
H      1.99546827    -3.22719380    -2.99512155
O      4.32426344     2.20592306     1.20195284
H      4.12785169     2.19996633     2.06396719
H      3.58916590     2.63219009     0.82578991
O     -4.68879838     2.06080266     1.11855928
H     -4.78376585     2.17765990     2.08171944
H     -5.48864905     2.53961442     0.81511951
O     -2.67411378     3.49641577    -2.43641107
H     -1.79424706     2.94797141    -2.81501751
H     -2.48758657     4.37607533    -2.69735162
72
iceXI n=24 T=150K rep=0
O     -0.16500646    -0.42909277     0.16647297
H     -0.33192653     0.47975291     0.50751058
H     -0.95871067    -0.80114112     0.54403332
O     -0.21796490     2.11439168     1.18809096
H     -1.13053055     2.55513529     0.94825944
H     -0.35957805     2.24330940     2.14710026
O     -0.39728201    -0.34980289    -2.51142482
H     -0.29597558    -0.41472502    -1.64408430
H      0.37368600    -0.79863194    -2.82674993
O     -2.33765936    -1.83528823     1.20508895
H     -3.11917658    -1.43687241     0.75079580
H     -2.38256706    -2.72196003     0.86435534
O      1.99562246    -1.64370419     1.28046971
H      1.25494564    -1.15411325     0.92850700
H      1.91140670    -2.47376734     0.90849581
O      2.02838719    -1.86597596    -3.42878299
H      2.09313559    -1.83211158    -4.45367570
H      2.77262390    -1.44559814    -3.06934198
O     -2.49094291    -4.09509310     0.31968202
H     -3.24563302    -4.77321388     0.53618977
H     -2.39338244    -4.08469849    -0.59762990
O      1.97119215    -4.35121261     0.12530437
H      1.19957979    -4.70810230     0.42459297
H      1.96601257    -4.29023976    -0.86045145
O     -2.64234125    -1.58400977    -3.31554972
H     -1.85173717    -1.17573942    -3.11927414
H     -2.59757371    -1.67191286    -4.28505861
O     -4.80161440    -0.54814309     0.38006523
H     -5.50838778    -1.02754915     0.61626956
H     -4.75869149     0.36377526     0.67788664
O      4.07681817    -0.35260611     0.13153036
H      3.36982982    -0.82659362     0.43330712
H      4.12516280     0.47827317     0.43764463
O      1.88260140    -1.68191136     3.87649469
H      1.96175200    -1.57437894     2.82172611
H      2.68046285    -1.30012035     4.11631590
O     -0.40231884     2.24665672     3.89047517
H      0.48044412     2.73765151     4.08594489
H     -0.19179126     1.40739959     4.25491818
O     -0.42697730     2.21149560    -3.52254172
H      0.37077223     2.63205952    -3.21936043
H     -0.30342163     1.34917519    -3.19583689
O     -2.42589720     3.50067193     0.25363402
H     -3.19146511     3.14904858     0.59361379
H     -2.57802239     3.53227065    -0.77386711
O      1.99052160     3.51246895     0.28507093
H      1.15336335     3.10125061     0.60064348
H      1.87900720     3.59940235    -0.72809763
O     -0.27609623    -0.37247494     4.81877020
H     -0.47361073    -0.27992800     5.77490711
H      0.52601391    -0.90500384     4.66075781
O     -2.61373986    -1.74428058     3.95348372
H     -1.71803402    -1.30243156     4.30525555
H     -2.45502123    -1.70138267     3.10017584
O      4.12424294    -0.29118370    -2.55882026
H      4.24416329    -0.37617548    -1.61911645
H      4.93865094    -0.77969924    -2.86694453
O      1.84178017     3.36820762    -2.51130957
H      2.66762291     2.94293170    -2.83168617
H      1.94375149     4.32037390    -2.83632123
O      2.03350362    -4.32208959    -2.53143920
H      2.81894230    -4.71400061    -2.70904221
H      2.01478786    -3.41757288    -2.82869494
O      4.19560946     2.20804821     1.21121739
H      4.14421510     2.29602947     2.20615291
H      3.41286442     2.61818613     0.94686419
O     -4.66512624     2.23865287     1.11766248
H     -4.73891118     2.22452560     2.02197752
H     -5.50752170     2.45763588     0.79734016
O     -2.65526235     3.48749887    -2.41748675
H     -1.83341240     3.11992489    -2.81016008
H     -2.54354725     4.51943817    -2.82551825
72
iceXI n=24 T=150K rep=1
O     -0.14363266    -0.33719347     0.19568138
H     -0.15616894     0.53078808     0.46028779
H     -0.95277708    -0.75366359     0.44477917
O     -0.29110434     2.25092464     1.17105596
H     -1.07575348     2.60935411     0.83320898
H     -0.33169471     2.25543626     2.12687923
O     -0.34859553    -0.36729103    -2.58032035
H     -0.31655104    -0.37934815    -1.60951266
H      0.40699387    -0.76465686    -2.91026219
O     -2.49347660    -1.66967776     1.04239063
H     -3.30890130    -1.27120132     0.77266389
H     -2.44829915    -2.45631428     0.68430246
O      2.00705666    -1.55289152     1.09591986
H      1.26689856    -1.19518932     0.86083823
H      1.98105507    -2.57171490     0.90306302
O      1.83576004    -1.70177571    -3.31313963
H      1.83796377    -1.72411924    -4.36299709
H      2.59022626    -1.23421111    -3.18621905
O     -2.38812641    -4.29039880     0.28477068
H     -3.23487637    -4.67109158     0.60596576
H     -2.45820489    -4.45641288    -0.66190034
O      2.07711640    -4.18679216     0.35541112
H      1.33512460    -4.75193434     0.55105430
H      2.06682809    -4.12877939    -0.61137090
O     -2.55108704    -1.70895269    -3.43001495
H     -1.80426380    -1.21423803    -3.09895518
H     -2.63168679    -1.61693716    -4.37344631
O     -4.89911694    -0.48124652     0.23722202
H     -5.69457635    -0.89033114     0.50354303
H     -4.91689567     0.46872492     0.63822918
O      4.33872232    -0.45752973     0.05808125
H      3.65305903    -0.95655664     0.43220598
H      4.23992921     0.43199271     0.31542807
O      1.86915456    -1.83905144     3.77528841
H      1.96612663    -1.82368474     2.88411539
H      2.69219670    -1.37349343     4.07302945
O     -0.37287870     2.40252993     3.93264556
H      0.44029470     2.79370395     4.33152951
H     -0.40251916     1.46845553     4.31765542
O     -0.37260105     2.31843390    -3.44582075
H      0.48685605     2.65110916    -3.05199204
H     -0.40568455     1.40424226    -3.17859983
O     -2.48528231     3.46186585     0.26969123
H     -3.31882862     3.06525227     0.54118620
H     -2.55731911     3.42290254    -0.71614079
O      1.91772572     3.61711585     0.15168224
H      1.11097829     3.16253963     0.46957919
H      1.98667806     3.53739226    -0.70370684
O     -0.31948112    -0.44044858     4.75988546
H     -0.27075621    -0.53615263     5.69198787
H      0.48374240    -0.82689368     4.38107977
O     -2.59666825    -1.63940033     4.02965109
H     -1.77387474    -1.11529554     4.19189827
H     -2.57438957    -1.62491975     3.05320468
O      4.21485641    -0.19276072    -2.43823814
H      4.22592710    -0.41164431    -1.63426478
H      4.90337551    -0.67109590    -2.93054797
O      1.82141998     3.45352811    -2.61156902
H      2.57971264     3.10553763    -3.04925356
H      1.83941508     4.31466749    -2.92784870
O      1.95044348    -4.27885018    -2.46909481
H      2.83394301    -4.61633190    -2.75488187
H      1.91053991    -3.43865262    -2.85807359
O      4.27677825     2.37685107     0.98623381
H      4.30494790     2.25893175     1.85542101
H      3.32116146     2.64222134     0.81262188
O     -4.61896758     2.18506399     0.94597185
H     -4.68237887     2.07800841     1.93470883
H     -5.41389961     2.63947412     0.65743872
O     -2.45309837     3.56926831    -2.68130518
H     -1.69232848     3.10517055    -2.97756079
H     -2.42695213     4.36574167    -3.00568284
72
iceXI n=24 T=150K rep=2
O     -0.19106825    -0.30252966     0.14995071
H     -0.21070775     0.43783044     0.49508135
H     -0.90048675    -0.82223871     0.41004721
O      0.01073151     2.08828290     1.21048034
H     -0.88204529     2.51303371     0.67651765
H     -0.40438642     2.34023095     2.09098873
O     -0.30258770    -0.34415202    -2.52714187
H     -0.38251489    -0.41878599    -1.67610754
H      0.46784637    -0.77358348    -2.82953059
O     -2.49995963    -1.64694073     1.04959420
H     -3.32136890    -1.32356144     0.60643140
H     -2.45506681    -2.52797949     0.71831506
O      2.04759399    -1.67224500     1.20809174
H      1.35750533    -1.20028334     0.79153072
H      2.05501078    -2.57251541     0.79613774
O      1.92482235    -1.61909701    -3.45685876
H      1.94424979    -1.57753072    -4.53741913
H      2.94291118    -1.15867489    -3.18978393
O     -2.46538579    -4.36794774     0.24788408
H     -3.30896290    -4.74233002     0.35226083
H     -2.55622437    -4.10595536    -0.71601934
O      2.02895138    -4.21792365     0.28993656
H      1.34879271    -4.60128741     0.49766701
H      2.04170076    -4.21005511    -0.74939671
O     -2.54983091    -1.59019327    -3.34531050
H     -1.60083000    -1.16164959    -3.29142712
H     -2.54508614    -1.64407101    -4.18270617
O     -4.61968437    -0.41790695     0.08719866
H     -5.45723205    -0.83074336     0.48020081
H     -4.65457740     0.49648817     0.51328390
O      4.21528976    -0.47794644     0.27395843
H      3.62789180    -0.92509490     0.65894123
H      4.17215415     0.52247604     0.63325378
O      1.97999751    -1.80120823     4.03964127
H      2.00030753    -1.86778836     3.12766503
H      2.85818595    -1.27420604     4.44048778
O     -0.27915465     2.12475044     3.86441075
H      0.55180985     2.73625194     4.10911368
H     -0.13744799     1.39684769     4.25097044
O     -0.39318275     2.30559787    -3.57851719
H      0.39124102     2.80731815    -3.19683865
H     -0.25149290     1.43446508    -3.11422174
O     -2.51990801     3.38893739     0.26761799
H     -3.35505732     2.94381008     0.73887866
H     -2.53459623     3.47617435    -0.61581249
O      2.05313629     3.53332691     0.16350905
H      1.18734269     3.01936317     0.44555404
H      1.90582832     3.51515773    -0.80808820
O     -0.18200466    -0.45198279     4.69527366
H     -0.15850989    -0.34748220     5.64669855
H      0.56068253    -0.71792717     4.39927654
O     -2.44830057    -1.76591161     3.83752497
H     -1.65573257    -1.14642536     4.07552666
H     -2.46720289    -1.74170738     2.86521255
O      4.09371302    -0.43050266    -2.56750619
H      4.25011388    -0.53394775    -1.57876637
H      4.89742443    -0.82936477    -2.98345636
O      2.09175292     3.46511183    -2.43214110
H      2.82730696     3.23581056    -2.80716836
H      1.81733392     4.23638280    -2.84153277
O      1.99661553    -4.29201953    -2.43148317
H      2.86006715    -4.65996660    -2.81774534
H      1.97207920    -3.44619935    -2.89648379
O      4.19718485     2.19045330     1.00421714
H      4.31418801     2.26039753     2.04603630
H      3.48995634     2.75885555     0.82900374
O     -4.68980989     2.19235945     1.16237759
H     -4.73709682     2.23453026     2.04311701
H     -5.44928378     2.70908173     0.87261781
O     -2.32783760     3.45141295    -2.44386186
H     -1.56249360     3.10444158    -2.78494626
H     -2.43925570     4.40582965    -2.81993055
72
iceXI n=24 T=150K rep=3
O     -0.24381541    -0.31896948     0.04021971
H     -0.05580680     0.45961296     0.28113044
H     -0.92171962    -0.95600730     0.50471602
O     -0.27191315     2.20271021     0.80176384
H     -0.87028555     2.70051230     0.62347698
H     -0.07095478     2.14691384     1.91684653
O     -0.32757794    -0.27474931    -2.60384795
H     -0.10699009    -0.37392810    -1.65847485
H      0.35036355    -0.69527103    -2.91380069
O     -2.64935800    -1.62525021     1.21973490
H     -3.41262236    -1.22404063     0.81051091
H     -2.64274117    -2.51924842     1.24984099
O      1.97263346    -1.65147023     1.13888489
H      1.19312966    -1.28256295     0.83580855
H      1.91960344    -2.60849839     0.88243890
O      1.85890430    -1.82986471    -3.50292413
H      1.80921538    -1.52847770    -4.40167656
H      2.66003231    -1.42405522    -3.22000761
O     -2.33443847    -4.26914025     0.29347026
H     -3.25665319    -4.78235522     0.60582651
H     -2.40317053    -4.11890572    -0.70390194
O      1.90041078    -4.22217141     0.18209525
H      1.02903757    -4.98070654     0.44849935
H      1.78550124    -4.31542281    -0.94241944
O     -2.35226237    -1.73592317    -3.36715874
H     -1.65675966    -1.13363380    -3.25821918
H     -2.53004388    -1.62349674    -4.56627086
O     -4.61716832    -0.36574829     0.17675788
H     -5.48962371    -0.93150882     0.58058646
H     -4.88821452     0.49487233     0.50113623
O      4.14795488    -0.46531277     0.11753866
H      3.44215822    -0.83334609     0.55985583
H      4.17450702     0.26493892     0.47524163
O      1.64267523    -1.49681494     3.82324968
H      1.88580147    -1.56896894     2.87230267
H      2.57911871    -0.85148931     4.28357387
O     -0.32515984     2.12145006     3.70530397
H      0.38573904     2.64326681     4.13617241
H     -0.25839154     1.23853195     4.12234558
O     -0.22129567     2.13388234    -3.34843426
H      0.45027031     2.56145542    -3.03480482
H     -0.21486419     1.33617398    -3.11259093
O     -2.55527758     3.52050887     0.33125374
H     -3.35033138     3.28795066     0.54560204
H     -2.52271735     3.64446352    -0.73448072
O      2.04942424     3.50355281     0.25107348
H      1.18717227     3.05005473     0.53231486
H      1.89210630     3.43092048    -0.74302569
O     -0.30413389    -0.47869117     4.81342297
H     -0.24371151    -0.57655288     5.82417770
H      0.48937883    -0.92179490     4.53303040
O     -2.56842659    -1.61449688     3.73524517
H     -1.55961274    -1.22349018     3.98015747
H     -2.35885114    -1.67914074     3.01768892
O      4.21268615    -0.51763083    -2.56295530
H      4.44688162    -0.35449958    -1.62038573
H      5.21407869    -0.85772644    -3.03340881
O      1.87841329     3.45985726    -2.52778905
H      2.69766798     3.12655636    -2.79512230
H      1.89481983     4.24850482    -2.99888043
O      2.10247141    -4.37222748    -2.47220298
H      2.77962541    -4.91729899    -2.82528624
H      2.09024503    -3.42554925    -2.77242715
O      4.17431698     2.22689342     0.97309793
H      4.39382164     2.49657384     2.01100711
H      3.51107943     2.67856619     0.89220063
O     -4.71825903     2.09012402     1.11070340
H     -4.78868169     2.14753355     2.06465938
H     -5.59758689     2.52889843     0.68963460
O     -2.55373571     3.46329167    -2.47993863
H     -1.82118936     2.96751187    -2.90551826
H     -2.63241763     4.21275507    -2.86087449
72
iceXI n=24 T=150K rep=4
O     -0.16583903    -0.35092161     0.15245562
H     -0.20468028     0.47190085     0.69315654
H     -1.12300982    -0.92563049     0.50995014
O     -0.32599968     2.07581043     1.02034263
H     -1.10781576     2.67927859     0.67018397
H     -0.30785618     2.21956436     1.95564138
O     -0.33320616    -0.38804845    -2.55529887
H     -0.13319409    -0.38971017    -1.60100818
H      0.55342954    -0.76606846    -2.91085495
O     -2.45244289    -1.61198653     1.09613057
H     -3.10873526    -1.27496339     0.71716764
H     -2.46485827    -2.62338540     0.68935283
O      2.04498993    -1.60520988     1.15569534
H      1.01361072    -1.43275630     0.86667458
H      1.99237458    -2.55259944     0.73206389
O      2.10221601    -1.77240835    -3.20135533
H      2.12714590    -1.73910516    -4.16956254
H      2.83277393    -1.38791972    -2.99013101
O     -2.48968338    -4.04462189     0.28095234
H     -3.31370800    -4.68537977     0.41643413
H     -2.35758356    -4.23347148    -0.77218300
O      2.02449206    -4.28826379     0.14379628
H      1.18000436    -4.79767719     0.40458588
H      2.04747435    -4.55290180    -0.81984461
O     -2.54031621    -1.96279779    -3.43494063
H     -1.77628667    -1.43878836    -3.12658622
H     -2.59806723    -1.76924601    -4.27549073
O     -4.62883299    -0.33781853     0.23211390
H     -5.50539299    -0.80033416     0.46624014
H     -4.76085418     0.51456006     0.45990789
O      4.38738504    -0.41515824     0.26750182
H      3.53764689    -0.90015284     0.58888006
H      4.26085378     0.30852832     0.56827373
O      1.72575847    -1.79628509     3.94584949
H      2.03220929    -1.74215915     3.01445111
H      2.68557077    -1.28182489     4.15330129
O     -0.35169881     2.22146445     3.94090273
H      0.39090755     2.60208636     4.14282930
H     -0.36952499     1.32993549     4.26295344
O     -0.44065591     2.20761285    -3.56891430
H      0.52187743     2.68433739    -3.22230941
H     -0.31729356     1.30460383    -3.09356986
O     -2.56117956     3.46636419     0.56651456
H     -3.35450265     3.03956761     0.58927296
H     -2.63317906     3.59594739    -0.53415700
O      2.02712396     3.32609756     0.16651683
H      1.15360980     3.01516483     0.42053642
H      1.94564051     3.29505241    -0.65645481
O     -0.35794881    -0.35887642     4.90330007
H     -0.08089207    -0.33073068     5.74347114
H      0.41577511    -0.78853776     4.35491284
O     -2.27115386    -1.66518660     3.99175660
H     -1.58476893    -1.25560991     4.12747741
H     -2.46151828    -1.59436460     3.20428005
O      4.29723579    -0.40937018    -2.82750311
H      4.23921385    -0.41974515    -1.71426459
H      5.08497252    -0.83022839    -2.73113398
O      1.91335377     3.48768183    -2.58626915
H      2.59740279     2.84580026    -2.85622892
H      2.00835716     4.28689524    -2.88815798
O      1.80063310    -4.25087938    -2.53901396
H      2.70634626    -4.64440721    -2.81158535
H      2.19554015    -3.40130718    -2.84553823
O      4.29794702     1.95009366     1.13442404
H      4.27833576     2.19596382     2.20155786
H      3.44383546     2.43059998     0.72904766
O     -4.70388618     2.06334020     1.08614830
H     -4.87580216     1.94651301     2.14889274
H     -5.45563874     2.45767382     0.78634138
O     -2.61867323     3.60988365    -2.57639132
H     -1.73844168     3.08468505    -2.89728507
H     -2.47527048     4.44238824    -2.74403976
72
iceXI n=24 T=150K rep=5
O     -0.28636818    -0.53744453     0.13698020
H     -0.29536932     0.30131895     0.48859509
H     -1.13541456    -0.90763225     0.47960793
O     -0.28256957     2.27103304     1.10483939
H     -0.99558471     2.62599287     0.73901553
H     -0.40153041     2.41648001     2.09664677
O     -0.39059643    -0.41625869    -2.46162547
H     -0.29302301    -0.46777491    -1.57328481
H      0.54901738    -0.92126178    -2.86407547
O     -2.53219193    -1.69413854     1.15178495
H     -3.26606311    -1.28658592     0.86021405
H     -2.39714806    -2.74201518     0.83818707
O      1.88428660    -1.66203391     1.02025949
H      1.14600913    -1.15591411     0.70494675
H      2.00486811    -2.47880997     0.69664468
O      1.88676549    -1.72779411    -3.48777852
H      1.96977600    -1.75088495    -4.34301778
H      2.70301814    -1.28752471    -3.23889280
O     -2.42324313    -4.29761107     0.04043920
H     -3.26427382    -4.77911786     0.35111921
H     -2.44658382    -4.31635488    -0.76292660
O      1.97454479    -4.18495063     0.20762241
H      1.10178718    -4.68504977     0.39549555
H      2.21137605    -4.41082792    -0.69662866
O     -2.65748320    -1.53330740    -3.54860832
H     -1.83547081    -1.30640899    -3.22211443
H     -2.47919384    -1.66017042    -4.41657883
O     -4.65453294    -0.37076315     0.07061312
H     -5.32548310    -0.66143789     0.40219712
H     -4.79829779     0.60913609     0.52171055
O      4.50108330    -0.52500819     0.10459318
H      3.62228037    -0.78260847     0.41948103
H      4.41647928     0.42482174     0.32642805
O      1.93434903    -1.72451391     3.95091936
H      2.01880225    -1.75909118     3.03087340
H      2.82315084    -1.34512637     4.11765695
O     -0.49204448     2.17271888     3.89459051
H      0.36648251     2.57863139     4.22470685
H     -0.40647601     1.19705967     4.11008079
O     -0.25022208     2.20822528    -3.42993597
H      0.47342473     2.57255549    -3.20572177
H     -0.30558746     1.28639730    -3.10522329
O     -2.50033099     3.33608369     0.29107445
H     -3.36418045     2.94010431     0.54010563
H     -2.46429280     3.51268049    -0.63475650
O      2.03814293     3.42336443     0.27741331
H      1.18180572     3.00619802     0.55878646
H      1.91481472     3.46277033    -0.55046960
O     -0.34015072    -0.53244750     4.62013799
H     -0.23607228    -0.38462228     5.78792548
H      0.50482305    -0.98545959     4.42388991
O     -2.70652190    -1.77697598     4.02333640
H     -1.84751582    -1.38902659     4.36026360
H     -2.55842083    -1.67774740     3.02419996
O      4.26153364    -0.41987485    -2.63272667
H      4.23788846    -0.44340311    -1.66485920
H      4.96399597    -0.87348177    -2.88567519
O      1.88458595     3.26149274    -2.56081119
H      2.68710081     3.03832238    -2.98054148
H      1.82431640     4.33115169    -2.78202225
O      1.86185877    -4.26902985    -2.46212265
H      2.66234399    -4.65352016    -2.72398738
H      1.95331274    -3.53001454    -2.84102849
O      4.39352653     2.23609530     1.17257963
H      4.24747863     2.31831466     2.02402292
H      3.59391476     2.71833772     0.88999342
O     -4.73622152     2.16646960     0.96582596
H     -4.87370426     2.08090795     2.03168800
H     -5.64184481     2.53675029     0.66009055
O     -2.47760745     3.26020346    -2.39074060
H     -1.74571463     3.01357403    -2.81752710
H     -2.53953157     4.17454606    -2.71467007
36
iceIc n=12 T=50K rep=0
O     -0.09633815     0.19766417    -0.83901654
H     -0.56512389    -0.26707065    -1.51096947
H      0.46976797     0.73175153    -1.40494025
O      1.23830685    -1.14861132     0.73657751
H      1.75532490    -1.78796131     0.20101737
H      0.83003121    -0.61563779     0.11040016
O      1.44767758     1.92802082    -2.31717839
H      0.95590721     2.51408113    -3.11803093
H      1.79643414     1.22602477    -2.92638815
O     -2.02207421     1.95295788     0.71941951
H     -1.27224725     1.50597046     0.20541287
H     -2.22369245     1.27436442     1.23531946
O     -1.79117739    -0.95625853    -2.48127704
H     -1.21180105    -1.62973174    -2.98730801
H     -2.40966372    -1.76582103    -2.01106176
O     -3.40340173     0.36328182     2.03626388
H     -3.00729704    -0.09943314     2.82651513
H     -4.08866032     0.88487430     2.66714968
O     -3.23375265    -2.81891965    -0.96248322
H     -3.91307572    -3.41657681    -1.58614400
H     -3.96862146    -2.34135645    -0.38740704
O      2.96006646    -2.67085167    -0.95386224
H      2.24211564    -3.35946968    -1.49630602
H      3.56261913    -3.36246764    -0.43963135
O     -0.06776507     3.47024443     2.19200898
H     -0.60585261     3.17809937     1.50962808
H     -0.66017950     3.93526348     2.81978703
O     -0.18322781    -2.74564192     2.34096246
H     -0.87426330    -3.26723210     1.80922970
H      0.26614841    -2.31812003     1.68077428
O      2.93328026     0.31666445     2.39515322
H      2.41205037    -0.17156353     1.74892314
H      3.68293053     0.83395649     1.75386954
O      3.15922493     3.41540824    -0.92670557
H      2.63035743     2.87276698    -1.43561092
H      3.59357649     3.94383381    -1.50054237
36
iceIc n=12 T=50K rep=1
O     -0.19419625     0.46763267    -0.72643208
H     -0.77208430    -0.06722965    -1.40953757
H      0.39815805     0.97620790    -1.42046871
O      1.39179828    -1.18035213     0.76754053
H      1.95113446    -1.80458656     0.16238939
H      0.90022796    -0.78862998     0.20123150
O      1.49089561     1.88960174    -2.49719024
H      0.84742453     2.50379183    -3.08532408
H      1.91037475     1.44068997    -3.15341979
O     -1.86180221     2.04267037     0.68412726
H     -1.31502325     1.41054835     0.20072501
H     -2.41362743     1.39136824     1.29820021
O     -1.78177629    -1.18112801    -2.45521702
H     -1.21012437    -1.64012092    -3.00240573
H     -2.39399126    -1.78417377    -2.12210804
O     -3.46393701     0.20625646     2.17607490
H     -2.89745486    -0.28605916     2.80009932
H     -3.93153468     0.75994662     2.76090876
O     -3.34730346    -2.68843070    -0.94075771
H     -3.90991077    -3.36250627    -1.49468601
H     -3.90211056    -2.24118089    -0.55933176
O      2.91023456    -2.76051839    -0.87329320
H      2.41967671    -3.35470189    -1.39583701
H      3.48208805    -3.28408015    -0.25409221
O     -0.15464930     3.54060634     2.21053499
H     -0.72731139     3.03549934     1.67516278
H     -0.72381401     4.05527646     2.72626197
O     -0.24079947    -2.75639403     2.23032041
H     -0.69818252    -3.36637323     1.64989890
H      0.30778127    -2.29163666     1.68608210
O      2.95960343     0.42970561     2.27864723
H      2.54628514    -0.21693436     1.74618445
H      3.53607246     0.94553697     1.80367628
O      2.96294386     3.52985299    -0.95372656
H      2.46898957     2.93642744    -1.50082473
H      3.42183666     4.09784367    -1.50502660
36
iceIc n=12 T=50K rep=2
O     -0.16832606     0.37298811    -0.94609685
H     -0.76731118    -0.24951196    -1.53054212
H      0.33026668     0.95124843    -1.53946302
O      1.40012165    -1.32280443     0.68150810
H      1.88237711    -1.83667446    -0.10370949
H      0.85620175    -0.78003129     0.10063912
O      1.33424617     2.01547645    -2.40820453
H      0.84146058     2.49652302    -3.03968046
H      1.93620790     1.23315149    -3.05375391
O     -1.75999180     2.10996199     0.52937008
H     -1.27972475     1.59640820    -0.05775356
H     -2.29535442     1.53958257     1.04181796
O     -1.81410581    -1.21009773    -2.55001478
H     -1.16649989    -1.79913491    -2.98078619
H     -2.33356405    -1.73909077    -2.12543598
O     -3.28453746     0.38008091     2.10265358
H     -2.82555606    -0.22126825     2.75462591
H     -4.04259898     0.91306871     2.62559918
O     -3.26827032    -2.87222610    -0.95125407
H     -3.95086401    -3.34953054    -1.32629987
H     -4.07496936    -2.48931391    -0.35894700
O      3.02900102    -2.78739705    -1.03964533
H      2.42796774    -3.41872366    -1.48080551
H      3.48147086    -3.27776296    -0.40910881
O     -0.16889505     3.40003403     2.24275895
H     -0.79608819     2.87812296     1.67630507
H     -0.68798805     4.15149985     2.75937375
O     -0.22845219    -2.84497232     2.26042835
H     -0.75433285    -3.52686895     1.88632940
H      0.27539656    -2.36170477     1.64200501
O      2.99379014     0.37107030     2.29464329
H      2.39236300    -0.18823735     1.68632853
H      3.50102682     0.72318126     1.55883494
O      3.01243128     3.53382252    -0.96811285
H      2.43398165     2.99925371    -1.46682060
H      3.50615577     4.21982805    -1.32772283
36
iceIc n=12 T=50K rep=3
O     -0.40663633     0.38142337    -0.97820423
H     -0.84877204    -0.06050723    -1.64799114
H      0.13112179     0.99932549    -1.37699743
O      1.42607451    -1.19559440     0.75330526
H      1.95879075    -1.68072105    -0.01654340
H      0.74680176    -0.66893260     0.03843374
O      1.34406105     1.79272617    -2.48761494
H      0.93318622     2.45765579    -3.09091703
H      2.16659141     1.35295357    -2.86697666
O     -1.88646711     1.92355810     0.76726014
H     -1.50103972     1.31069602     0.17930243
H     -2.38628611     1.57565475     1.24585943
O     -1.69568216    -1.21569247    -2.56454701
H     -1.32618022    -1.70809092    -3.16735910
H     -2.28025519    -1.48060322    -1.94732377
O     -3.44511440     0.37794997     2.25567148
H     -2.93876890    -0.33214165     2.88881671
H     -3.83647358     1.00448239     2.81626781
O     -3.30337841    -2.84400237    -0.97696915
H     -3.79239640    -3.33493990    -1.54354224
H     -3.93444903    -2.21134498    -0.23384385
O      2.98342187    -2.70906962    -0.88959375
H      2.36279601    -3.33522403    -1.33091195
H      3.48529878    -3.23889067    -0.45990584
O     -0.17561718     3.77488508     2.19770740
H     -0.66995168     3.27547521     1.53593097
H     -0.62258076     3.95055645     3.12597679
O     -0.35458660    -2.85653593     2.37590737
H     -0.80503577    -3.41204363     1.75066775
H      0.20209154    -2.36236736     1.66245910
O      2.99785688     0.35681874     2.38060375
H      2.39088791    -0.07864790     1.71944473
H      3.62989265     1.03004310     1.74304877
O      3.05787573     3.45868057    -0.92467824
H      2.35512138     3.10705547    -1.52474336
H      3.48406889     4.07907960    -1.53344786
36
iceIc n=12 T=50K rep=4
O     -0.15898742     0.42639525    -0.85000838
H     -0.63258288    -0.11671862    -1.49986165
H      0.40526269     0.91243195    -1.39417459
O      1.40855836    -1.32595385     0.78919136
H      1.89180344    -1.92659444     0.08484376
H      0.93115315    -0.61574667     0.11964163
O      1.27364878     2.03818141    -2.36321794
H      0.87000109     2.57331003    -2.92217611
H      1.84641452     1.49877447    -2.84469869
O     -1.71355899     2.01002008     0.47868015
H     -1.25737040     1.29180225     0.01898114
H     -2.19041577     1.46462566     1.16659060
O     -1.82330963    -1.27742475    -2.52748704
H     -1.12549616    -1.70346830    -2.87616200
H     -2.46031185    -1.77567935    -2.24347207
O     -3.41803374     0.27395142     2.27975069
H     -2.84146421    -0.10385420     2.88444698
H     -3.97483461     0.85294227     2.74109417
O     -3.39622539    -2.74942550    -0.94568972
H     -3.85730422    -3.34930706    -1.44950843
H     -3.87184859    -2.25760591    -0.24289932
O      3.01513223    -2.70682054    -0.78780303
H      2.42966713    -3.24727136    -1.39789516
H      3.56090139    -3.38571453    -0.28297887
O     -0.17558207     3.50055177     2.17582865
H     -0.74944512     3.04052858     1.70840665
H     -0.75516969     4.10119542     2.80281776
O     -0.03378777    -2.78092560     2.23183456
H     -0.68690113    -3.17292977     1.79990858
H      0.37328318    -2.20508774     1.67292317
O      2.92007996     0.17876505     2.36265807
H      2.50888445    -0.15669645     1.75378013
H      3.53888953     0.87497711     1.85762945
O      2.99810756     3.50875579    -0.95451416
H      2.57610321     2.90812019    -1.59316986
H      3.43888337     4.16929918    -1.40486590
36
iceIc n=12 T=50K rep=5
O     -0.27420657     0.29385881    -0.93403531
H     -0.77150995    -0.11160309    -1.40082932
H      0.29843907     0.87112493    -1.43736582
O      1.30001032    -1.10811602     0.77368203
H      1.86129633    -1.72766662     0.23256056
H      0.92031782    -0.53764495     0.04727003
O      1.42563439     1.97894377    -2.42800106
H      0.92471000     2.61654594    -3.03067551
H      1.90964708     1.52289434    -2.89582738
O     -1.87822262     1.89729816     0.65375327
H     -1.29216006     1.30527853     0.10015934
H     -2.41816910     1.25645343     1.19197740
O     -1.92635800    -1.30361452    -2.51466854
H     -1.37047920    -1.72311203    -3.02879832
H     -2.43120974    -1.67193204    -2.00815214
O     -3.44866804     0.26998474     2.19503549
H     -2.93149500    -0.17905251     2.77979970
H     -4.04090501     0.80555725     2.78609000
O     -3.27317548    -2.82716202    -0.89517963
H     -3.90143739    -3.32551969    -1.58337304
H     -3.86564844    -2.23816583    -0.44940564
O      2.99864706    -2.84997135    -0.79830742
H      2.48953109    -3.39397911    -1.41038782
H      3.53114156    -3.34311667    -0.30920138
O     -0.10048951     3.55283767     2.27960889
H     -0.74978261     2.93615604     1.82030516
H     -0.65953599     4.06872479     2.89578163
O     -0.20690000    -2.82077224     2.29744801
H     -0.73122885    -3.27594502     1.65452905
H      0.45926411    -2.42075925     1.78211479
O      2.89291860     0.38486328     2.36169327
H      2.53226148    -0.10409542     1.72997246
H      3.51486613     0.95587090     1.87414734
O      2.83869638     3.63986690    -0.93122523
H      2.26424732     3.17741715    -1.53383018
H      3.48814200     4.08963313    -1.44538007
36
iceIc n=12 T=150K rep=0
O     -0.19388984     0.30178354    -0.80715348
H     -0.90591446    -0.06695551    -1.54468872
H      0.19984847     1.03289780    -1.30455561
O      1.47723385    -1.25493261     0.69157490
H      2.02973460    -1.80163389     0.09056210
H      0.77386535    -0.63014697     0.16876528
O      1.41124490     2.12325364    -2.62397946
H      0.75930532     2.45030599    -2.99472113
H      1.85297728     1.45062952    -3.10618800
O     -1.74461714     2.03048894     0.85020212
H     -1.09340255     1.42677092     0.28063644
H     -2.40745476     1.54096013     1.24174270
O     -1.59079121    -1.14626904    -2.58716954
H     -1.33271816    -1.81822623    -3.15884199
H     -2.21092189    -1.73466232    -2.03746600
O     -3.33463096     0.32586727     2.06484542
H     -2.80762031    -0.22167908     2.62375006
H     -3.84820611     0.89117937     2.81672296
O     -3.08608807    -3.03026409    -0.88521844
H     -3.78854922    -3.50740777    -1.46429503
H     -3.80345147    -2.51085390    -0.29437434
O      2.76104726    -2.68487808    -1.05035381
H      2.28224673    -3.24426335    -1.47595620
H      3.39274461    -3.37017035    -0.40188089
O     -0.19654275     3.61934100     1.99936303
H     -0.70711235     2.99201679     1.60194075
H     -0.78481183     4.10277751     2.57677398
O     -0.16998526    -2.76386510     2.21677721
H     -0.91017887    -3.37805179     1.73622247
H      0.25694175    -2.43104727     1.58326693
O      2.86450899     0.10364929     2.59067046
H      2.38676458    -0.14949329     1.89195241
H      3.42586921     0.81379470     1.98963408
O      3.00648106     3.51919861    -0.82987966
H      2.64055525     2.97036497    -1.42834240
H      3.56707200     4.08352010    -1.29511224
36
iceIc n=12 T=150K rep=1
O     -0.24468375     0.47704610    -0.94953040
H     -0.85876343    -0.05366330    -1.45323930
H      0.26367633     1.03198679    -1.61310638
O      1.45826917    -1.30733529     0.78074531
H      1.98158751    -1.89512400     0.18216469
H      0.87012311    -0.82501355     0.31997142
O      1.28454925     1.95162646    -2.32292756
H      0.81415214     2.54509125    -2.77252832
H      1.79007826     1.43207160    -3.11536396
O     -1.76770143     2.11181680     0.64133490
H     -1.19083916     1.49837147     0.12598429
H     -2.25326093     1.51648962     1.18200388
O     -1.87862208    -1.24268558    -2.60317030
H     -1.25342868    -1.95674820    -3.12935810
H     -2.31475607    -1.82943465    -1.85127343
O     -3.26800326     0.33166732     2.16672931
H     -2.72281945    -0.20665992     2.90250834
H     -3.73881292     0.78886033     2.78437368
O     -3.37860253    -2.84355187    -0.83256149
H     -4.01946149    -3.27405692    -1.44879950
H     -4.05486475    -2.28547509    -0.31886890
O      3.03687409    -2.82852108    -0.78881851
H      2.36410765    -3.44268995    -1.35891778
H      3.62804126    -3.42088437    -0.29795609
O     -0.18778966     3.52582630     2.16560238
H     -0.83579988     3.15886106     1.62124427
H     -0.70826158     4.05241717     2.72575337
O     -0.06558734    -2.90981822     2.38536573
H     -0.69670650    -3.22911177     1.83019853
H      0.62757603    -2.27110233     1.78258353
O      3.05232575     0.34459463     2.48334266
H      2.55437094    -0.31780432     1.97936836
H      3.56680359     0.70175449     1.73907329
O      2.79853299     3.60143244    -0.83499885
H      2.37368036     3.05104651    -1.46821706
H      3.33505136     4.10865953    -1.53885060
36
iceIc n=12 T=150K rep=2
O      0.07624888     0.35021741    -0.92767642
H     -0.54213008    -0.11196701    -1.31116028
H      0.42777349     0.83413787    -1.54524065
O      1.58493776    -1.23581487     0.66794627
H      2.02583771    -1.82450766     0.25478779
H      0.88784610    -0.71213607     0.22402492
O      1.32595654     1.85501984    -2.40661253
H      0.67400783     2.36655231    -3.11968969
H      1.99307347     1.26715877    -3.17342159
O     -1.80513900     2.11768221     0.57894658
H     -1.51567263     1.44056312     0.22511078
H     -2.50129725     1.54234086     1.36379943
O     -1.67286383    -1.29391861    -2.60804919
H     -1.10946349    -1.61505082    -3.22708646
H     -2.14235194    -1.87723885    -1.95011492
O     -3.36111410     0.37009678     2.54388280
H     -2.84803683    -0.14955274     2.80063767
H     -4.12307692     0.89859973     3.05087128
O     -3.43143308    -2.94448767    -0.99387984
H     -3.93154080    -3.40491933    -1.57565541
H     -3.78799447    -2.45481269    -0.42385910
O      2.91940515    -2.74625244    -1.09334986
H      2.57641299    -3.31779801    -1.49156021
H      3.51258485    -3.22589351    -0.43036287
O     -0.18869049     3.55422858     2.17744362
H     -0.72316291     3.20483483     1.69668180
H     -0.59817727     4.11782084     2.80447652
O     -0.32620989    -2.79326043     2.36758456
H     -0.82135992    -3.37939414     1.82725445
H      0.30770999    -2.22150779     1.89289246
O      2.90608053     0.37772532     2.30560779
H      2.48912443    -0.23537705     1.73243117
H      3.47668841     0.79831825     1.72042224
O      2.98528229     3.52653775    -0.87447979
H      2.40698733     2.94014043    -1.41044258
H      3.59175899     4.08931665    -1.40028564
36
iceIc n=12 T=150K rep=3
O     -0.45104550     0.34834366    -0.85858710
H     -0.93318559    -0.17813414    -1.35126938
H      0.21792947     0.80847436    -1.49087696
O      1.29448576    -1.21119674     0.70242018
H      2.04941916    -1.81315703     0.20072650
H      0.87007554    -0.73159328     0.10744832
O      1.24925205     1.85951099    -2.46375223
H      0.71143415     2.34054052    -3.04871008
H      1.82626449     1.32237032    -3.01017943
O     -1.70864021     1.88489328     0.70349464
H     -1.42648472     1.30794514     0.21153662
H     -2.42080967     1.50919990     1.30812183
O     -1.64730003    -1.31307879    -2.41651194
H     -1.12435157    -1.95860843    -2.93733737
H     -2.29616833    -1.96248287    -1.93838248
O     -3.32676182     0.33128001     2.22267362
H     -2.86089234    -0.24097498     2.60246131
H     -3.91710936     0.77546653     2.80730322
O     -3.33756610    -2.87641164    -1.03431322
H     -3.95308324    -3.43419174    -1.53883949
H     -3.64200580    -2.45912845    -0.31603360
O      3.04737229    -2.63976697    -0.97193905
H      2.52198819    -3.30255584    -1.39582619
H      3.66775714    -3.38409918    -0.28215293
O     -0.11387635     3.52313173     2.05799282
H     -0.68896558     2.98550175     1.61183169
H     -0.68637834     4.01760367     2.55348284
O     -0.24413770    -2.76815169     2.39204333
H     -0.78950124    -3.33471760     1.81133642
H      0.32245954    -2.25566299     1.81380319
O      3.07058861     0.19132216     2.32984111
H      2.54157688    -0.15522092     1.68397305
H      3.59849047     0.85392365     1.70194615
O      3.20694404     3.45672326    -0.78816100
H      2.58671795     2.92102104    -1.28625830
H      3.60492495     4.20696854    -1.48781157
36
iceIc n=12 T=150K rep=4
O     -0.19729683     0.53833013    -0.93075577
H     -0.62613849    -0.03357123    -1.42233908
H      0.34702077     0.97502311    -1.51051002
O      1.42955148    -1.34855705     0.86211510
H      1.85231505    -1.88865380     0.24932995
H      0.79268481    -0.77273054     0.18147595
O      1.46226513     1.93610834    -2.40443456
H      0.94641754     2.34589804    -3.00397014
H      2.03223539     1.42419730    -2.96470675
O     -1.72172088     1.94021785     0.72235601
H     -1.25102574     1.50861479     0.14267792
H     -2.22686461     1.26985079     1.29538313
O     -1.92533148    -1.21500191    -2.55937009
H     -1.31058647    -1.77733310    -3.13479565
H     -2.35286833    -1.80062340    -1.92591018
O     -3.51800291     0.35260004     2.12216998
H     -2.96274272    -0.10234809     2.74119854
H     -3.98565197     0.83506030     2.83381818
O     -3.49875854    -2.85602082    -0.94639258
H     -4.10382109    -3.44235375    -1.53370673
H     -4.09885244    -2.42574911    -0.48129507
O      2.92817227    -2.65124291    -0.86619984
H      2.38960943    -3.31337521    -1.48508292
H      3.45576286    -3.41398772    -0.27329466
O     -0.03718080     3.58443307     2.35180121
H     -0.73583769     3.06574272     1.82027876
H     -0.88818894     4.18919837     2.86410997
O     -0.21556997    -2.83438888     2.32297902
H     -0.53976062    -3.37773305     1.55661625
H      0.45228034    -2.22988932     1.92636075
O      2.95471872     0.36381448     2.58076251
H      2.47322108    -0.12019688     1.84278581
H      3.64724437     1.08967694     1.96664591
O      2.89344047     3.41590915    -0.85534867
H      2.56171920     3.02675393    -1.44855915
H      3.61243345     3.97582760    -1.33334962
36
iceIc n=12 T=150K rep=5
O     -0.28660609     0.33467145    -0.82814165
H     -0.57966787    -0.13985811    -1.43976526
H      0.41744722     0.86319856    -1.44804545
O      1.48122376    -1.33991327     0.75044928
H      1.91649112    -1.78483218     0.05275065
H      0.97363765    -0.83985978     0.39784767
O      1.35968167     1.83142027    -2.29279552
H      0.91719909     2.40183119    -2.90485150
H      2.02028857     1.40826428    -2.94533411
O     -1.83055612     2.13160499     0.85267150
H     -1.28265236     1.60564828     0.25830253
H     -2.23976929     1.39620690     1.19611359
O     -1.83960761    -1.15766816    -2.51275887
H     -1.33648992    -1.82269587    -2.84851896
H     -2.53088904    -1.84589937    -2.04256116
O     -3.20893333     0.48259945     2.24200610
H     -2.85617469    -0.14059760     2.72606734
H     -3.96907499     0.74231579     2.71531411
O     -3.17229693    -3.03101731    -1.17333704
H     -4.14967435    -3.46665182    -1.49089493
H     -3.90899431    -2.61957595    -0.51161663
O      3.08646653    -2.73830119    -0.89636262
H      2.48987182    -3.33018515    -1.69978491
H      3.36461828    -3.53768135    -0.33821798
O      0.03826341     3.52859012     2.23679809
H     -0.64276437     2.95932490     1.79842686
H     -0.77445857     3.91619103     2.82568832
O     -0.17548664    -2.90608738     2.39430328
H     -0.79130517    -3.34871992     1.82137999
H      0.29318720    -2.18691825     2.00270488
O      3.04074631     0.37075401     2.30649025
H      2.24970406    -0.08853536     1.79348022
H      3.56909454     0.78971776     1.67317809
O      2.84946523     3.62366641    -0.82178607
H      2.38481222     3.11850648    -1.59912325
H      3.47457813     4.03142711    -1.61393287
48
iceIc n=16 T=50K rep=0
O      0.31758584     0.03328138     0.04368569
H     -0.17362003    -0.64014557    -0.58517453
H      0.90319811     0.56873699    -0.64434078
O      2.03976114    -1.50117847     1.47226352
H      2.64607751    -1.99282697     0.88781988
H      1.20139261    -0.94911755     0.92779717
O      1.88861530     1.72146276    -1.63122982
H      1.23891374     2.08755765    -2.25936606
H      2.34612692     1.00811910    -2.14921566
O     -1.56887432     1.98829867     1.50282011
H     -0.94072395     1.35458474     0.99102916
H     -1.95633898     1.25076568     2.21654930
O     -1.13047882    -1.62861746    -1.60603705
H     -0.70134284    -2.04875633    -2.12255528
H     -1.94610260    -2.08467540    -1.03317519
O     -2.99199781     0.04083686     2.78316715
H     -2.54237060    -0.52484078     3.40361109
H     -3.73433327     0.65571752     3.55955577
O     -2.91423744    -3.00552021    -0.09607951
H     -3.47128594    -3.73323794    -0.57357730
H     -3.41835335    -2.69492907     0.58738168
O      3.26454294    -3.03052720    -0.14044864
H      2.93089572    -3.88027583    -0.60262063
H      3.89972785    -3.61553332     0.50387842
O      0.26785224     3.29017742     3.09474038
H     -0.26093037     2.78636179     2.53669141
H     -0.08864019     4.00407377     3.57377786
O      0.20254689    -3.02163933     3.13418483
H     -0.39408097    -3.64369590     2.47296622
H      0.74280573    -2.66205572     2.66577245
O      3.41199854    -0.07140059     2.94137312
H      2.84233698    -0.46488124     2.28967143
H      3.92210138     0.56758639     2.56548074
O      3.41242114     3.23631161    -0.05557404
H      2.82466074     2.83831093    -0.74050465
H      3.89656267     3.64651142    -0.57479770
O      0.31964566     3.30183636    -3.37722863
H     -0.44500659     3.85975954    -2.84048228
H      0.70079240     3.99168196    -3.89237265
O     -3.00754512     0.34010676    -3.24325060
H     -2.48009167    -0.31191796    -2.58698647
H     -3.54173246    -0.36673070    -3.80369933
O      0.21591141    -3.17591314    -3.38839854
H      0.75350667    -2.64707667    -3.73462250
H      0.89561113    -3.72862100    -2.74922176
O     -2.91147838     3.40829716    -0.01400510
H     -2.21605977     2.79498154     0.48328061
H     -3.47371586     2.89469138    -0.56117004
48
iceIc n=16 T=50K rep=1
O      0.34033626     0.19732037    -0.03216932
H     -0.27898915    -0.41884396    -0.60276182
H      0.70974637     0.76962504    -0.75038354
O      1.83624830    -1.32593579     1.69596024
H      2.46801878    -1.92220068     1.23861629
H      1.31280437    -1.03370761     0.95576669
O      1.77719620     1.58235378    -1.68548440
H      1.20903689     2.15007011    -2.25065736
H      2.51456196     1.25470656    -2.42933418
O     -1.36236034     1.52511077     1.52379068
H     -0.79515272     1.09261246     0.90281062
H     -1.76627826     0.98292717     1.95341738
O     -1.21096490    -1.44812001    -1.67218147
H     -0.77774250    -2.17437782    -2.30916562
H     -1.84353678    -1.93681992    -1.25924181
O     -2.94776571    -0.06670370     2.79921860
H     -2.37612860    -0.48253132     3.47370444
H     -3.53058191     0.68552769     3.39390777
O     -3.00222850    -3.07832169     0.01508751
H     -3.64810018    -3.72502285    -0.59072362
H     -3.60114597    -2.59307315     0.46251401
O      3.56497890    -3.04475809    -0.18143130
H      2.90475298    -3.56355756    -0.60636199
H      3.84882613    -3.78435760     0.35697037
O      0.26831083     3.29131866     3.09021734
H     -0.33158590     2.89219773     2.64829452
H     -0.33700630     3.77936386     3.64989837
O      0.42703550    -3.04616753     3.17767507
H     -0.20474766    -3.70840625     2.62647041
H      0.92180414    -2.71365820     2.60116128
O      3.45383330     0.05220268     3.15149331
H      2.92307433    -0.36257493     2.44618552
H      4.08447102     0.61956233     2.45249961
O      3.35986882     3.39735247    -0.03529796
H      2.76912772     2.88013374    -0.73773243
H      3.94000190     3.94578837    -0.79999959
O      0.32531189     3.29058706    -3.34912299
H     -0.32181411     3.80587547    -2.81657222
H      0.86385324     3.79326102    -3.56123958
O     -2.92244542     0.08740237    -3.18653574
H     -2.51615652    -0.41196375    -2.70280421
H     -3.60725907    -0.47277490    -3.83655999
O      0.33387175    -3.07994168    -3.07585244
H      0.57885836    -2.57917834    -3.70217904
H      0.76553723    -3.68173560    -2.49302556
O     -2.91460937     3.41478646    -0.25348482
H     -2.39719663     2.61790379     0.39972203
H     -3.52135453     2.66571553    -1.03139876
48
iceIc n=16 T=50K rep=2
O      0.17629454    -0.07609518     0.21744943
H     -0.48573318    -0.44011329    -0.42878803
H      0.67212216     0.50014938    -0.52262057
O      1.75273705    -1.38692135     1.53464912
H      2.51569613    -1.99333554     1.03312706
H      1.38198171    -0.93109063     0.89696947
O      1.86642873     1.53656911    -1.51202750
H      1.37806508     2.14714775    -2.10511738
H      2.42780052     1.21932682    -2.05738300
O     -1.42145293     1.68706452     1.46736952
H     -0.74210977     1.12888898     1.04234208
H     -1.92219743     1.24725212     2.09303379
O     -1.21405542    -1.34754420    -1.82740544
H     -0.88130214    -2.06579239    -2.19121569
H     -1.78464937    -2.02531735    -1.27496573
O     -3.00786978     0.22455968     3.01135131
H     -2.49974657    -0.39958804     3.72126288
H     -3.56918238     0.53558321     3.60687577
O     -2.87630461    -3.08375083     0.06631332
H     -3.40118450    -3.52905459    -0.47073762
H     -3.58549366    -2.50928146     0.53793550
O      3.52058034    -3.02743552     0.08174223
H      2.92380620    -3.61996690    -0.55253211
H      3.94284281    -3.57106296     0.45524100
O      0.28045779     3.29443197     3.08450336
H     -0.40147147     2.76584184     2.55810662
H     -0.25021436     3.87039874     3.41904363
O      0.03289274    -2.89401233     3.15566307
H     -0.32298397    -3.67243169     2.44493251
H      0.59273545    -2.32643949     2.59942992
O      3.49179168     0.06905423     3.12436884
H      2.94786214    -0.43356240     2.56469451
H      3.90411472     0.60239174     2.69950609
O      3.54482287     2.98996656    -0.04639534
H      2.91274904     2.58492749    -0.52721704
H      4.02684552     3.56260983    -0.59625881
O      0.14137803     3.27637940    -3.35051118
H     -0.28271972     3.92823335    -2.90708581
H      0.72738756     3.92839588    -3.98973464
O     -2.93926389     0.07815586    -3.21605981
H     -2.46580682    -0.64064408    -2.85292739
H     -3.57921185    -0.52606815    -3.81487755
O      0.20099835    -3.01715417    -3.24697505
H      0.69861768    -2.52391996    -3.77786944
H      0.56196668    -3.52385499    -2.59428794
O     -2.95651422     3.31365039    -0.11157281
H     -2.40396235     2.65093285     0.49435371
H     -3.65516710     2.86246270    -0.53143519
48
iceIc n=16 T=50K rep=3
O      0.25400703     0.09753040    -0.02230001
H     -0.18888801    -0.20116634    -0.77298600
H      0.85283202     0.65291506    -0.15186932
O      1.86517713    -1.27386125     1.63685575
H      2.42163625    -1.91515083     1.01778721
H      1.35093062    -0.76767266     0.81269461
O      1.73473418     1.67784763    -1.74850028
H      1.38292930     2.22983917    -2.24005220
H      2.14820752     1.08569392    -2.19431250
O     -1.12972957     1.87996866     1.46005591
H     -0.57615257     1.25872098     0.87397658
H     -1.78517411     1.10130795     1.82160039
O     -1.21696858    -1.29762143    -1.75126258
H     -0.67233123    -1.86562706    -2.00196655
H     -1.89290998    -1.74850496    -1.11229008
O     -2.92608141     0.03498553     2.87547155
H     -2.38933958    -0.54347159     3.65412247
H     -3.51949176     0.36061740     3.57701720
O     -2.89671725    -3.29485046     0.03898328
H     -3.52879688    -3.67485040    -0.68927332
H     -3.51156759    -2.46336577     0.44747678
O      3.19624740    -3.09461284    -0.01759477
H      2.86180332    -3.64040859    -0.61596225
H      3.80658189    -3.73520334     0.42278869
O      0.37085414     3.28403685     3.20202815
H     -0.20450642     2.69204916     2.60982827
H     -0.16787928     3.77693313     3.78841456
O     -0.00157284    -3.05543584     3.18099467
H     -0.37960420    -3.52982825     2.49183478
H      0.54922736    -2.62527643     2.59093171
O      3.35432228     0.05662438     3.18997848
H      2.88601847    -0.39089852     2.43882445
H      4.07930800     0.36427765     2.53481560
O      3.49341317     2.98306853    -0.07961567
H      2.88978179     2.72666086    -0.74999266
H      3.85098339     3.75562692    -0.82340781
O      0.22077305     3.09385001    -3.22018570
H     -0.17013976     3.79715818    -2.85035226
H      0.68164636     3.64312989    -3.81399666
O     -3.03153904     0.23099210    -3.39600325
H     -2.38322380    -0.37036733    -2.86995239
H     -3.50614055    -0.41926559    -3.82939527
O      0.13227591    -3.15794932    -3.28598194
H      0.62536637    -2.61161907    -3.88653951
H      0.89901018    -3.65901506    -2.75264320
O     -3.19791904     3.47213265    -0.07079611
H     -2.49079185     2.73610719     0.59775319
H     -3.43658438     2.81321355    -0.51780091
48
iceIc n=16 T=50K rep=4
O      0.20797178     0.12951235    -0.11020141
H     -0.31327131    -0.40384945    -0.63644018
H      0.80487944     0.71184361    -0.61657088
O      1.79350788    -1.50239052     1.50102353
H      2.41339335    -2.05086992     0.92987651
H      1.28622302    -0.96957160     0.98704632
O      1.73822222     1.56083433    -1.70294085
H      1.30483028     2.16313856    -2.16058050
H      2.38029758     1.02848689    -2.33737323
O     -1.26510531     1.83563784     1.60578221
H     -0.79239534     1.30129020     1.06779481
H     -1.94179867     1.28008557     2.06770126
O     -1.40122059    -1.46621057    -1.60167710
H     -0.77144590    -2.11624580    -2.02559016
H     -1.95739833    -1.99847635    -0.97230389
O     -2.88028093     0.05490806     3.11296076
H     -2.45139946    -0.55936627     3.81663031
H     -3.44622131     0.62985037     3.76760714
O     -2.91402230    -3.18330614    -0.14715522
H     -3.44208398    -3.81855819    -0.66229449
H     -3.43689185    -2.69797056     0.35938478
O      3.41763542    -2.87976383     0.02584522
H      2.99996900    -3.48915652    -0.58900914
H      3.94715702    -3.42943119     0.53059372
O      0.39489107     3.19013959     3.17264164
H     -0.23862714     2.78185988     2.67408649
H     -0.06296193     3.74296871     3.74299951
O      0.23995256    -3.20100454     3.11475092
H     -0.34650830    -3.72173693     2.47350291
H      0.80652709    -2.51207499     2.62667810
O      3.56981934     0.22805544     3.25060529
H      2.89711369    -0.29881300     2.79096420
H      4.01762903     0.71763302     2.54064844
O      3.37481054     3.25658982     0.04263806
H      2.78899939     2.66121760    -0.57452542
H      3.97507283     3.75514879    -0.55993454
O      0.20042591     3.28557449    -3.30984577
H     -0.32356876     3.89055869    -2.68153143
H      0.63387271     3.85394073    -3.85426554
O     -2.87647975     0.11511989    -3.19491938
H     -2.40908065    -0.42265713    -2.66761489
H     -3.50362493    -0.45423017    -3.74454359
O      0.15237349    -3.08699029    -3.21321722
H      0.70647565    -2.56259818    -3.75046635
H      0.75125713    -3.60672222    -2.74913901
O     -2.92542680     3.43838697     0.00716338
H     -2.40428437     2.86916853     0.53720104
H     -3.45687545     2.87999611    -0.57578743
48
iceIc n=16 T=50K rep=5
O      0.27310192     0.20170534     0.04873079
H     -0.18204924    -0.51536668    -0.49466624
H      0.80943958     0.62319142    -0.39705215
O      1.61167093    -1.54433302     1.54093876
H      2.02064457    -2.29069532     1.06404956
H      1.14996928    -1.04222690     0.91478437
O      1.65515961     1.71581195    -1.56216878
H      1.31277146     2.13263855    -2.16199510
H      2.37748313     0.93551298    -2.17794153
O     -1.38197018     1.76127864     1.55721600
H     -0.89767568     1.18056925     0.97049558
H     -1.98484235     1.22228088     2.12317132
O     -1.48479695    -1.49404069    -1.72545486
H     -0.75522949    -2.03629022    -2.31349115
H     -2.00872753    -2.08163827    -1.30599619
O     -3.05470833    -0.09303813     3.16169222
H     -2.38938633    -0.53878610     3.46439291
H     -3.55569305     0.51724636     3.50636512
O     -2.94451175    -3.05407551    -0.13465540
H     -3.60912910    -3.68946458    -0.72344582
H     -3.53774540    -2.49160682     0.45828430
O      3.57564462    -3.11325440    -0.14130443
H      2.92641057    -3.60681486    -0.57926026
H      4.01460554    -3.83505933     0.35284699
O      0.25402746     3.20120176     2.97816685
H     -0.26073124     2.67059433     2.56245491
H     -0.27022695     3.79466811     3.52252770
O      0.20117694    -2.99042370     3.16080965
H     -0.19757633    -3.60244858     2.59113305
H      0.70953918    -2.56365735     2.78348959
O      3.55175904     0.19069147     3.04230957
H      2.85147608    -0.22277501     2.51248600
H      4.00796102     0.61074070     2.56155486
O      3.50898030     3.22977697    -0.06732385
H      2.87826007     2.73926505    -0.61743816
H      3.96799833     3.93015255    -0.58794263
O      0.28340263     3.23142779    -3.31756767
H     -0.26329004     3.97671260    -2.79477850
H      0.72046102     3.79183141    -3.78892596
O     -2.80421094     0.07816975    -3.16025685
H     -2.34178014    -0.41102328    -2.75627111
H     -3.43728595    -0.45499425    -3.85314293
O      0.03906697    -3.00965068    -3.28397339
H      0.68630443    -2.42435026    -3.82518295
H      0.59866355    -3.48282200    -2.69871514
O     -2.86282834     3.40401868     0.01354866
H     -2.43162679     2.78678010     0.38831728
H     -3.46901323     2.85450083    -0.54833740
48
iceIc n=16 T=150K rep=0
O      0.15314267     0.02024114    -0.03441594
H     -0.41401830    -0.46924276    -0.59674120
H      0.72218579     0.56538950    -0.75180820
O      1.87529904    -1.69682587     1.62693910
H      2.48670423    -2.20737623     0.96615884
H      1.24212442    -1.06950096     1.14894316
O      1.96419761     1.57830098    -1.69620568
H      1.51589918     2.09106033    -2.36043961
H      2.48347132     0.99834358    -2.19291535
O     -1.35792850     1.67477668     1.41707492
H     -0.90694178     1.10131741     0.86766534
H     -2.00235961     1.17080308     1.96255240
O     -1.32379522    -1.46668976    -1.69872207
H     -0.78034494    -1.98162589    -2.33759292
H     -1.76844412    -2.03015515    -1.31032092
O     -2.78455991     0.12937646     3.06043420
H     -2.39983134    -0.44560055     3.70584645
H     -3.32362207     0.81228773     3.59031320
O     -2.81918488    -3.27165827    -0.09875892
H     -3.44851952    -3.78075650    -0.68755596
H     -3.33617447    -2.71779496     0.44837046
O      3.30489130    -3.00906713    -0.11334912
H      2.83606268    -3.58775048    -0.64167209
H      4.01380086    -3.47597585     0.38195982
O      0.20298741     3.37078435     3.11408914
H     -0.38998402     2.83603352     2.55252988
H     -0.35704833     3.88107328     3.60513577
O      0.23686755    -3.07365212     3.14660281
H     -0.44171161    -3.65471753     2.65020848
H      0.76093462    -2.56106289     2.46361616
O      3.25913366     0.11596778     3.20750627
H      2.88774458    -0.43832288     2.54598175
H      3.90334163     0.57532098     2.64020590
O      3.34018981     3.31446164    -0.21620097
H      2.85004538     2.66695396    -0.75168500
H      3.95357704     3.82940065    -0.72454603
O      0.33715071     3.02176178    -3.19365930
H     -0.20684109     3.58584191    -2.67066410
H      0.84890378     3.67303277    -3.66093087
O     -2.97946773     0.15773547    -3.22225538
H     -2.36322059    -0.40610757    -2.68862380
H     -3.43618886    -0.46537385    -3.75322220
O      0.11424657    -3.28462236    -3.23080919
H      0.67919499    -2.77696749    -3.83995864
H      0.79691993    -3.75049171    -2.75686582
O     -3.05421789     3.45348641    -0.18930631
H     -2.49198300     2.84189446     0.39051284
H     -3.53297822     2.91916754    -0.77501987
48
iceIc n=16 T=150K rep=1
O      0.26218104     0.15167873     0.01186132
H     -0.24783528    -0.51418208    -0.47301656
H      0.56496242     0.67424159    -0.74270945
O      1.81468362    -1.54602232     1.62494922
H      2.39375332    -2.10701464     1.01434033
H      1.31941318    -1.01032433     1.05566499
O      1.87822521     1.62205315    -1.53354498
H      1.30679845     2.17414338    -2.12848643
H      2.38712851     1.05156368    -2.22976534
O     -1.45484941     1.59010036     1.62407889
H     -0.81140370     1.14521541     1.01117709
H     -1.81192089     0.98296811     2.14521652
O     -1.37111507    -1.45830071    -1.80634149
H     -0.76398764    -2.02476325    -2.26899477
H     -1.79817137    -2.06258732    -1.16249712
O     -2.95156988     0.04704962     2.88635821
H     -2.33147680    -0.52499544     3.43608499
H     -3.50292487     0.51629063     3.48536326
O     -2.81345988    -3.29840838    -0.18639278
H     -3.45166294    -3.79238109    -0.64895842
H     -3.23948294    -2.71089675     0.36681655
O      3.33513076    -3.03784896    -0.06368853
H      2.77882092    -3.66692513    -0.61029737
H      3.94564715    -3.51791144     0.45523821
O      0.20178055     3.11014414     3.15101991
H     -0.39149444     2.58866872     2.60144866
H     -0.42406521     3.65139968     3.73491162
O      0.16615327    -2.98849549     3.25354334
H     -0.43672322    -3.61510888     2.62705811
H      0.61135578    -2.58848222     2.70180213
O      3.45155575    -0.03944237     3.22320018
H      3.00294817    -0.61733868     2.59564731
H      3.94844391     0.54887228     2.57633071
O      3.49309179     3.25578136    -0.05761271
H      2.85356042     2.78782329    -0.60586046
H      4.00502891     3.67689068    -0.57316468
O      0.09205356     3.16735301    -3.27514790
H     -0.35828516     3.86677940    -2.82309497
H      0.56531792     3.81260400    -3.85359650
O     -3.08820112     0.10440736    -3.31843269
H     -2.52060363    -0.58954310    -2.75433011
H     -3.62445231    -0.37245711    -3.80347190
O      0.13058385    -3.12605731    -3.28568686
H      0.68918056    -2.62484940    -3.90240544
H      0.71650205    -3.66175875    -2.70003927
O     -3.01358000     3.39192091     0.01953915
H     -2.48738422     2.66460034     0.48876435
H     -3.42451381     2.79939497    -0.65497927
48
iceIc n=16 T=150K rep=2
O      0.14804741    -0.02461879    -0.04632125
H     -0.40050019    -0.44526219    -0.70454291
H      0.72486211     0.60584576    -0.54119049
O      1.81329308    -1.46426547     1.42011288
H      2.41930794    -1.96335279     0.87114788
H      1.29056010    -0.86945964     1.03198761
O      1.88861893     1.81340649    -1.64767781
H      1.28899170     2.45609419    -2.20249099
H      2.45247928     1.27998696    -2.17936945
O     -1.41359429     1.72096780     1.34893288
H     -0.89384965     1.21128837     0.84856455
H     -1.86549327     1.12269803     1.99505122
O     -1.22099109    -1.42401188    -1.79423876
H     -0.80196599    -2.09699066    -2.33268833
H     -1.72704634    -1.90851197    -1.20737556
O     -3.08947327     0.15085115     2.93709283
H     -2.55789872    -0.42044014     3.69374504
H     -3.87068581     0.70484515     3.55129777
O     -2.94051551    -3.09941956    -0.07964511
H     -3.63246901    -3.56442885    -0.70231109
H     -3.56942000    -2.42521542     0.39591222
O      3.30852422    -2.77857054    -0.08556689
H      2.89704817    -3.37504468    -0.78522640
H      3.94741617    -3.41630452     0.42162583
O      0.15481762     3.30511407     3.07731858
H     -0.06334078     2.57503001     2.51028555
H     -0.32336716     3.64463161     3.55135422
O      0.29333949    -3.07978646     3.22902214
H     -0.38303329    -3.64244489     2.68708491
H      0.67417277    -2.69338755     2.52867726
O      3.43621957     0.19120912     3.19900883
H      2.92379218    -0.39943164     2.48613624
H      3.99608926     0.49637262     2.65724148
O      3.49572295     3.29339175    -0.10909534
H      2.98778148     2.57553957    -0.61130681
H      3.96584824     3.83354865    -0.60604380
O      0.14743406     3.13276763    -3.26005843
H     -0.37747193     3.89295026    -2.61424007
H      0.68371010     3.87249683    -3.74330179
O     -3.15531886     0.12419987    -3.38557774
H     -2.63401071    -0.44164449    -2.79227980
H     -3.39996221    -0.35298694    -3.98919851
O      0.14068934    -3.08799525    -3.13062528
H      0.67013342    -2.59878111    -3.87330220
H      0.78098133    -3.67392512    -2.63767007
O     -3.05221353     3.27493906    -0.30788833
H     -2.59248856     2.73978892     0.26306620
H     -3.70217658     2.62409775    -0.76143371
48
iceIc n=16 T=150K rep=3
O      0.15046458    -0.01543362     0.01272924
H     -0.49788902    -0.65441079    -0.45291379
H      0.63477894     0.60749435    -0.52528382
O      1.77512712    -1.52230231     1.60518347
H      2.43397540    -2.06464891     0.86147249
H      1.30970498    -1.11665730     1.03578640
O      1.76474782     1.61188651    -1.57867004
H      1.12097756     2.23151661    -2.16584705
H      2.30779209     1.14233193    -2.25029846
O     -1.59099199     1.58330758     1.47295116
H     -0.92055527     1.11486134     0.97605566
H     -2.00336389     1.12269896     2.10649140
O     -1.59298538    -1.41328285    -1.59566740
H     -0.83948587    -2.14544868    -2.24225197
H     -1.98178347    -2.00253344    -1.29442655
O     -3.18331932     0.07173278     2.79450723
H     -2.54151234    -0.40922419     3.53209406
H     -3.71090142     0.65412860     3.47671827
O     -3.09765290    -3.13066041    -0.05321518
H     -3.57366428    -3.71577006    -0.56086133
H     -3.58135049    -2.49442993     0.36034131
O      3.24600195    -3.22949016    -0.05630893
H      2.70264961    -3.65844417    -0.64555894
H      3.88018203    -3.73219140     0.47707410
O      0.38975134     3.27510783     3.24732475
H     -0.32385457     2.63084013     2.66538003
H      0.00584033     3.81437110     3.66960843
O      0.36961884    -3.18018972     3.22788377
H     -0.06381585    -3.74204990     2.48583902
H      0.75778942    -2.48742808     2.43135573
O      3.33494832    -0.07458517     3.13717636
H      2.72827958    -0.55665965     2.49035462
H      3.96869609     0.58478408     2.46607293
O      3.31345965     3.11773769     0.02212265
H      2.88597210     2.59167571    -0.57486063
H      3.79875013     3.70844263    -0.79190840
O      0.47074879     3.27959822    -3.29856585
H     -0.17697024     3.90181746    -2.78356882
H      1.00353277     3.91116541    -3.86833796
O     -3.09609392     0.41343629    -3.29369985
H     -2.56564898    -0.20523691    -2.71256109
H     -3.67843591    -0.20648945    -3.93348151
O      0.43062095    -3.11267289    -3.36232159
H      1.03108610    -2.56431288    -3.73427331
H      0.69708198    -3.74439691    -2.77084331
O     -3.05630920     3.44972447    -0.12147749
H     -2.56486610     2.84429930     0.63337064
H     -3.60810220     2.79639192    -0.61788552
48
iceIc n=16 T=150K rep=4
O      0.12451014     0.15355683     0.16520177
H     -0.43306550    -0.36219690    -0.36760305
H      0.62228653     0.70677974    -0.38905896
O      1.91915114    -1.51731756     1.50382325
H      2.39978801    -2.07676070     0.84905294
H      1.38496250    -0.90784616     1.04895636
O      1.88219254     1.69882530    -1.68312825
H      1.27168366     2.35096700    -2.16666833
H      2.21626341     1.23946720    -2.22498290
O     -1.40905487     1.56810308     1.51185585
H     -0.88298397     1.07464335     0.87406694
H     -1.83316552     1.11304809     2.08535105
O     -1.34046203    -1.52760731    -1.67297901
H     -0.86314620    -2.07777646    -2.08975766
H     -1.91548913    -2.09533379    -1.13105705
O     -2.88792798     0.14693038     2.99337053
H     -2.47482804    -0.46904676     3.67170702
H     -3.55938724     0.68936535     3.70142781
O     -2.87027565    -3.16511378    -0.26242341
H     -3.68153574    -3.68872306    -0.62724166
H     -3.34771029    -2.46872134     0.41522299
O      3.36088366    -3.01701089    -0.05930830
H      2.75412667    -3.66087151    -0.57327958
H      3.86395746    -3.61434149     0.51325812
O      0.35499383     3.17836731     3.10184275
H     -0.24593459     2.66309023     2.60005308
H     -0.28142541     3.84608784     3.61613506
O      0.29167674    -3.03916712     3.24182334
H     -0.28931531    -3.58978307     2.61997795
H      0.80508876    -2.54994284     2.51769674
O      3.40702258     0.16377046     3.16684440
H      2.86648160    -0.40545158     2.59050667
H      3.96613571     0.62880837     2.61232768
O      3.51341674     3.29137662    -0.17593952
H      2.92064951     2.78200367    -0.80967260
H      3.95164738     3.78024096    -0.74700429
O      0.12895685     3.15801189    -3.22656765
H     -0.28129824     3.73932764    -2.66707352
H      0.69994981     3.86895136    -3.90172012
O     -3.01959100     0.22733275    -3.40563484
H     -2.51692544    -0.44862740    -2.85476340
H     -3.38114997    -0.41181534    -3.93491876
O      0.06870037    -3.19800502    -3.23274707
H      0.69611217    -2.51774264    -3.79263301
H      0.76318578    -3.58002856    -2.75750276
O     -3.00991724     3.39978622    -0.06941263
H     -2.34009973     2.86904168     0.47106890
H     -3.47995289     2.78965557    -0.49119499
48
iceIc n=16 T=150K rep=5
O      0.13116512    -0.00936705    -0.04835329
H     -0.40609996    -0.66370062    -0.51605944
H      0.67501352     0.58281733    -0.56716372
O      1.72217815    -1.57731581     1.49229631
H      2.20301159    -2.22416435     0.89983185
H      1.19081964    -0.96080825     1.04196239
O      1.81958118     1.49407953    -1.53073297
H      1.33906515     2.11912917    -2.05944629
H      2.33784886     0.87900833    -2.07537563
O     -1.38671135     1.79996080     1.53533598
H     -0.89106082     1.24482306     0.97994118
H     -1.90571597     1.17626771     1.97044773
O     -1.38153215    -1.55970786    -1.77064340
H     -0.99224513    -2.07796446    -2.15972349
H     -2.05185571    -2.02702237    -1.10108556
O     -2.97700199     0.05909782     3.01377757
H     -2.49631781    -0.36982675     3.57385676
H     -3.39705248     0.58484433     3.56727824
O     -2.88854743    -2.99911952    -0.23217894
H     -3.39659572    -3.71980789    -0.68223722
H     -3.49833983    -2.61078777     0.48585563
O      3.36634669    -3.11872122     0.00550258
H      2.83597833    -3.72760240    -0.55849476
H      3.97444718    -3.74360780     0.36251890
O      0.22857372     3.27147263     2.92856338
H     -0.41017980     2.67375173     2.48218170
H     -0.38497643     3.73682975     3.67285968
O      0.41367621    -3.01598457     3.31246046
H     -0.11567946    -3.60133872     2.72680590
H      0.98424511    -2.56641781     2.61693221
O      3.35001503     0.23165853     3.19495952
H      2.85850128    -0.38000455     2.62638792
H      3.88442341     0.73400646     2.57737442
O      3.22236981     3.35491430     0.08890045
H      2.86249555     2.84852942    -0.53021023
H      3.94005214     3.85475097    -0.63629533
O      0.10768243     3.19339248    -3.45423668
H     -0.35863272     3.83817669    -2.75812499
H      0.66647989     3.85691266    -3.90283651
O     -2.85148538     0.12190540    -3.02350594
H     -2.44577115    -0.50325086    -2.62314581
H     -3.50326389    -0.45109731    -3.70106880
O      0.13308927    -3.18500183    -3.20692992
H      0.66402362    -2.59937330    -3.82948679
H      0.68112438    -3.53908664    -2.56610523
O     -2.92764050     3.24052155    -0.12948453
H     -2.31066126     2.91943553     0.42589551
H     -3.44689514     2.68471374    -0.41038716
60
iceIc n=20 T=50K rep=0
O     -0.04689155     0.39501575    -0.15046803
H     -0.46179971    -0.15010695    -0.79393034
H      0.64340546     0.98731650    -0.74403288
O      1.67528937    -1.18640001     1.31771830
H      2.13162371    -1.84372320     0.63588875
H      1.12487118    -0.61159677     0.79095168
O      1.32296961     1.92479804    -1.85565127
H      0.92073113     2.51003250    -2.38175014
H      1.90268443     1.40941495    -2.47047601
O     -1.71233001     1.94419301     1.29865845
H     -1.12649832     1.39960853     0.67523498
H     -2.20536349     1.41699151     1.78585421
O     -1.48243605    -1.16953306    -1.89855854
H     -1.02572336    -2.01113465    -2.27864006
H     -2.21730666    -1.59525192    -1.35538860
O     -3.25074306     0.21247777     2.93136211
H     -2.82170207    -0.31607375     3.54339655
H     -3.71040169     0.85711148     3.39731464
O     -3.13852293    -2.88565225    -0.15232954
H     -3.73534901    -3.47267168    -0.62879747
H     -3.63003655    -2.28630806     0.22470598
O      3.08171068    -2.79890524    -0.31466244
H      2.49506423    -3.38177598    -0.74826081
H      3.59236217    -3.29013531     0.33643254
O      0.20207141     3.43395669     2.95706229
H     -0.59845211     3.03537432     2.39774100
H     -0.51302375     4.06106828     3.45241024
O      0.06604662    -2.82916773     3.03830306
H     -0.55154862    -3.32267077     2.46017023
H      0.54203801    -2.20586806     2.41757503
O      3.20499532     0.35733091     2.87819352
H      2.63954642    -0.18446198     2.25088651
H      3.73256236     0.89918622     2.22455159
O      3.23569707     3.43712282    -0.18927208
H      2.61844555     2.90896782    -0.77465136
H      3.70034634     3.98995484    -0.80138331
O      0.02647631     3.54808245    -3.57911454
H     -0.60956522     4.09673209    -3.01097412
H      0.45088499     4.06591288    -4.11980613
O     -3.21169469     0.30256132    -3.54587423
H     -2.70695046    -0.26875413    -2.93263495
H     -3.77473828    -0.34546567    -4.02345992
O     -0.16686698    -2.83904030    -3.63661226
H      0.49897737    -2.40649794    -4.21925818
H      0.40775257    -3.28291459    -3.07833996
O     -3.23525749     3.60325343    -0.36523668
H     -2.68689396     3.05264084     0.21736627
H     -3.76230946     2.94104694    -0.79738556
O      3.09345207     0.35092174    -3.50429243
H      2.49742973    -0.20762942    -4.06883218
H      3.73901420    -0.17729737    -2.98500622
O     -1.72544705    -1.25276748     4.20080676
H     -1.17177045    -1.92346280     3.72047481
H     -2.20069452    -1.78485935     4.83411511
O      4.85545856     1.84812188     1.38628791
H      4.20762747     2.45138057     0.84126661
H      5.22362280     2.39617732     1.92112603
O     -1.55432789    -4.60289922     1.24965682
H     -2.13939859    -4.09493471     0.73260253
H     -2.06288321    -5.04077523     1.86592164
60
iceIc n=20 T=50K rep=1
O     -0.14144555     0.29994720    -0.27309864
H     -0.55615116    -0.17663974    -0.90342078
H      0.40255068     0.95877624    -0.83256880
O      1.53269642    -1.30414244     1.34244168
H      2.16521986    -1.79723404     0.81999408
H      1.02574088    -0.75129459     0.83530231
O      1.59611609     1.93260249    -1.85286098
H      1.08251870     2.44591834    -2.38553436
H      2.12985555     1.36424524    -2.44906071
O     -1.56399894     1.95789861     1.22057260
H     -1.10711879     1.42613330     0.63542915
H     -2.18028215     1.39866552     1.63350167
O     -1.71135306    -1.14048725    -1.97639691
H     -1.07953534    -1.77835989    -2.50547255
H     -2.18497609    -1.76209398    -1.48969994
O     -3.37491539     0.31715633     2.71490236
H     -2.79609648    -0.26779764     3.27374371
H     -3.85960740     0.84889882     3.27694824
O     -3.24489542    -2.89806345    -0.26808284
H     -3.82077201    -3.32688128    -0.82190764
H     -3.83034213    -2.26383546     0.25702888
O      3.09936087    -2.78125550    -0.39602596
H      2.59692527    -3.44024836    -0.89255020
H      3.52802331    -3.37231740     0.29212000
O     -0.01565380     3.51697372     2.87254338
H     -0.51593880     2.98983600     2.45527301
H     -0.52878026     4.07827538     3.47154509
O     -0.04887948    -2.90922369     2.83246192
H     -0.64680314    -3.40298617     2.28762914
H      0.46931123    -2.37608071     2.27176779
O      2.94499787     0.34497703     2.87206381
H      2.58623805    -0.23186529     2.21497526
H      3.60202167     0.88006683     2.42352480
O      3.10912567     3.63982590    -0.20534791
H      2.55909768     3.07674399    -0.82060089
H      3.64265781     4.10843560    -0.84634643
O      0.05817594     3.42605077    -3.45260366
H     -0.49130701     4.03069779    -2.82514486
H      0.59402712     4.05459174    -3.86375895
O     -3.07345348     0.39028844    -3.45228567
H     -2.52435494    -0.24000717    -3.05383730
H     -3.63778703    -0.11574165    -4.09739605
O     -0.19998473    -2.94367890    -3.42127148
H      0.48338919    -2.37145312    -3.99564407
H      0.37686522    -3.32492919    -2.84120749
O     -3.14402396     3.56945075    -0.43220749
H     -2.60628467     2.96365809     0.07518196
H     -3.75239746     3.03869354    -0.78289388
O      3.20593236     0.28447338    -3.53486886
H      2.57560780    -0.20116910    -4.06656489
H      3.61368237    -0.36417974    -2.99848856
O     -1.68092159    -1.30653562     4.50975131
H     -1.12922536    -1.91903383     3.89727349
H     -2.22065131    -1.90737825     4.96448608
O      4.82300085     1.84378927     1.18511941
H      4.18391152     2.45432187     0.77674511
H      5.30647140     2.39570718     1.87974942
O     -1.80214556    -4.44069904     1.33140633
H     -2.34494979    -3.91709603     0.73100498
H     -2.33538413    -5.01697009     1.78937310
60
iceIc n=20 T=50K rep=2
O     -0.13183926     0.42782425    -0.28914998
H     -0.55177742    -0.14792628    -0.81089595
H      0.51729416     0.78085913    -0.87005852
O      1.67072742    -1.17414439     1.36299074
H      2.10864901    -1.83706493     0.74363685
H      1.00389056    -0.56634729     0.85275427
O      1.48570787     1.80487165    -1.80427631
H      0.96823038     2.48893817    -2.45475498
H      2.06648482     1.48378215    -2.44106884
O     -1.61037314     1.89715958     1.11256448
H     -1.11004413     1.30239303     0.61616419
H     -2.09118274     1.28042989     1.75608979
O     -1.68986980    -1.20466738    -1.80232570
H     -1.11702161    -1.89792327    -2.19708545
H     -2.28096899    -1.76650581    -1.15186969
O     -3.19424268     0.37726714     2.83352862
H     -2.58247240    -0.17707538     3.42013068
H     -3.67886745     0.99184766     3.36449578
O     -3.19626721    -2.81951275    -0.29013080
H     -3.91526367    -3.25267615    -0.89042846
H     -3.77022009    -2.25620126     0.35661197
O      3.07616937    -2.79074774    -0.44224654
H      2.49627237    -3.45576402    -0.78342645
H      3.56723406    -3.26479121     0.16797451
O      0.00758982     3.33447733     2.78198582
H     -0.45688689     2.91129749     2.23869346
H     -0.46709620     4.01075829     3.34366829
O      0.08484858    -3.00672895     3.04870584
H     -0.64873212    -3.43739641     2.40736555
H      0.49269035    -2.30126586     2.37740364
O      3.36778488     0.45075183     3.05166429
H      2.72875788    -0.17523780     2.34799777
H      3.72084706     0.84596458     2.42562131
O      3.10552984     3.32518058    -0.36107123
H      2.55654251     2.83950285    -1.00176159
H      3.70055687     3.95914646    -0.77062475
O     -0.10851837     3.52497635    -3.62113116
H     -0.66168414     4.03549154    -3.13198284
H      0.70340484     4.03175324    -3.90457770
O     -3.18959395     0.29634200    -3.45469214
H     -2.61487731    -0.33579866    -3.01923319
H     -3.62867287    -0.30746458    -4.12794803
O      0.00022093    -2.78552703    -3.43430422
H      0.47079170    -2.37864419    -4.05930542
H      0.78303920    -3.37448043    -3.00066688
O     -3.15180245     3.58553361    -0.21601206
H     -2.66358948     3.07082270     0.24780181
H     -3.68992225     3.00378081    -0.73840387
O      3.15219026     0.40233988    -3.85268655
H      2.48896465    -0.11076709    -4.00341246
H      3.67524880     0.17235572    -3.27270168
O     -1.44882729    -1.25702970     4.42949213
H     -0.95509419    -1.84081064     3.81311920
H     -2.05668360    -1.83284685     4.96496307
O      4.71926494     1.84021420     1.28938214
H      4.19560576     2.40302872     0.67204505
H      5.44121170     2.38499253     1.74815865
O     -1.46766387    -4.49646867     1.17005128
H     -2.12386710    -4.17637284     0.59489042
H     -2.09191625    -5.05387199     1.75598644
60
iceIc n=20 T=50K rep=3
O     -0.20377474     0.34438218    -0.34539706
H     -0.50179969    -0.17643899    -0.92160394
H      0.40380818     1.05682804    -0.84353692
O      1.59462766    -1.21672127     1.27357941
H      2.09590795    -1.95340305     0.77533376
H      0.92314341    -0.91545781     0.63966802
O      1.49963592     1.81009511    -1.81755029
H      1.07438466     2.41854153    -2.41649873
H      2.05198642     1.38203999    -2.32908064
O     -1.72481154     1.86994274     1.27928579
H     -1.24298459     1.23736967     0.74686500
H     -2.33213156     1.43401577     1.83304503
O     -1.56255496    -1.24784031    -1.92429249
H     -1.09156183    -1.76469442    -2.51266922
H     -2.14316924    -1.85968116    -1.38637792
O     -3.22519732     0.24831836     2.74195400
H     -2.83649638    -0.19228125     3.34342377
H     -3.76407153     0.77127667     3.40990477
O     -3.10118731    -2.80731806    -0.16380381
H     -3.66413332    -3.25655853    -0.81886587
H     -3.48356390    -2.23470551     0.31483586
O      3.22413287    -2.90819288    -0.36552025
H      2.56871497    -3.46204924    -0.71713035
H      3.63685418    -3.52094793     0.20991793
O     -0.02953233     3.51581700     2.81829975
H     -0.40304822     2.94750435     2.33285822
H     -0.58769961     4.06554413     3.33916660
O     -0.15287855    -2.72421155     2.72852605
H     -0.49906062    -3.32031406     2.26289884
H      0.48467355    -2.25502025     2.31869105
O      2.98601798     0.41075629     2.98212721
H      2.45986575    -0.20479324     2.14516716
H      3.54373759     0.99250176     2.42086251
O      3.09006704     3.55899343    -0.25026463
H      2.55197710     3.04397510    -0.88564133
H      3.51523077     4.01415479    -0.83697689
O      0.01697718     3.55174038    -3.36198523
H     -0.67180568     4.05660376    -2.78901940
H      0.48393273     4.16801022    -4.05361834
O     -3.27752606     0.19498226    -3.59562378
H     -2.82544281    -0.29772516    -2.90123375
H     -3.68439166    -0.38511602    -4.11003822
O     -0.07695089    -2.78948784    -3.57285524
H      0.47237983    -2.12268323    -4.10973741
H      0.37199676    -3.27690976    -2.86316990
O     -3.13215131     3.63228646    -0.50816787
H     -2.61077034     3.02878455     0.03822559
H     -3.79563362     2.92382700    -0.96481370
O      3.13212613     0.33570621    -3.57584406
H      2.69879563    -0.22507433    -4.24293337
H      3.53014436    -0.16832710    -3.04956128
O     -1.77602017    -1.37721963     4.46608909
H     -1.16620050    -2.10523025     3.98035669
H     -2.16052187    -1.81887387     5.07814360
O      4.60229942     1.82616300     1.36979155
H      4.02654728     2.37890023     0.73961684
H      5.22522623     2.39861730     1.88460512
O     -1.57974280    -4.44198402     1.30533453
H     -2.13356325    -3.87700000     0.73492045
H     -2.25275688    -5.02957820     1.91283847
60
iceIc n=20 T=50K rep=4
O      0.02458115     0.31457739    -0.31720712
H     -0.44072612    -0.33799299    -0.81764229
H      0.39608390     0.89438478    -0.73262288
O      1.51309956    -1.34215413     1.34216372
H      2.01650105    -1.86551734     0.95137601
H      1.01858719    -0.66654477     0.73655262
O      1.59095893     1.98852508    -1.79393531
H      1.02354582     2.60864059    -2.34654344
H      2.11592352     1.46684183    -2.32421660
O     -1.62539853     1.90720825     1.20666091
H     -1.17564151     1.29568933     0.63867660
H     -2.22253875     1.62628805     1.92830697
O     -1.57825830    -1.24705999    -1.91630386
H     -1.16866341    -1.85420458    -2.37931043
H     -2.18394141    -1.67351123    -1.43675279
O     -3.08211816     0.45964801     2.70548133
H     -2.63127520    -0.17362662     3.45808874
H     -3.74512607     1.03093432     3.36999557
O     -3.08611620    -2.87319371    -0.18511862
H     -3.68197929    -3.40437221    -0.78331391
H     -3.94345312    -2.36368594     0.17787796
O      3.14214554    -2.95219493    -0.30729445
H      2.67094045    -3.60927372    -0.73949021
H      3.75843969    -3.44246902     0.19248646
O     -0.06818950     3.44262601     2.93962652
H     -0.57571804     2.96141984     2.38354239
H     -0.52671399     4.02613940     3.48358898
O      0.01314258    -2.70826685     2.75889612
H     -0.69712124    -3.32585183     2.40639083
H      0.55504309    -2.34798030     2.19035529
O      3.11401974     0.21176633     2.91423004
H      2.46551345    -0.10510311     2.42950760
H      3.62420231     0.73503381     2.35287796
O      3.11205183     3.52454971    -0.19212846
H      2.60985022     3.04343376    -0.68526086
H      3.53957395     4.01702387    -0.83052602
O     -0.00399264     3.48853038    -3.44549825
H     -0.53227074     4.00653095    -2.94870078
H      0.40320872     4.23403379    -4.09661443
O     -3.07371816     0.48772165    -3.75008050
H     -2.62990552    -0.15027313    -3.14664121
H     -3.66925902    -0.39597762    -4.17330945
O      0.05035891    -2.86384440    -3.48502136
H      0.56858128    -2.28616368    -3.89478127
H      0.66083469    -3.47587123    -2.80654398
O     -3.32441331     3.58636570    -0.42274561
H     -2.92255110     2.87770224     0.13497041
H     -3.69411670     3.09296816    -0.99300116
O      3.39893106     0.27402292    -3.56512048
H      2.64224748    -0.31019440    -3.96587772
H      3.83771443    -0.26615669    -2.96986258
O     -1.75556091    -1.19044884     4.59165367
H     -1.34014985    -1.76758197     4.04780624
H     -2.38321556    -1.59793108     5.02761088
O      4.72515006     2.01522257     1.36254647
H      4.28588137     2.46970863     0.81773850
H      5.07419797     2.67186893     1.95121287
O     -1.34731336    -4.43947068     1.21367651
H     -2.09854459    -3.88481611     0.71657634
H     -2.10747137    -5.12633232     1.74788145
60
iceIc n=20 T=50K rep=5
O      0.00327780     0.19545158    -0.22960921
H     -0.65597301    -0.30653260    -0.78600128
H      0.38692730     0.62592158    -0.85404439
O      1.33941557    -1.23098316     1.18812810
H      1.94995894    -1.74536741     0.60819928
H      0.92577782    -0.70481115     0.62286044
O      1.59206077     1.91842427    -1.82299962
H      0.92890495     2.39821455    -2.28442282
H      2.00257542     1.34187766    -2.43258945
O     -1.67598159     2.09204448     1.20127843
H     -1.17693224     1.48577801     0.69150778
H     -2.17859246     1.47089369     1.72441485
O     -1.49590441    -1.20666646    -1.95655733
H     -1.08549708    -1.80357607    -2.48437173
H     -2.09755640    -1.81422616    -1.30283010
O     -3.07724797     0.25418527     2.89450526
H     -2.68044588    -0.34135832     3.47843701
H     -3.68395506     0.76056822     3.41808501
O     -3.04141070    -2.94166869    -0.49912642
H     -3.64621793    -3.49306341    -1.00515708
H     -3.70639074    -2.46973191     0.07031690
O      3.16898298    -2.71133267    -0.29185685
H      2.66954024    -3.19222199    -0.85816308
H      3.67897533    -3.26701748     0.26341287
O     -0.08044091     3.70279213     2.73229933
H     -0.66297759     3.14327780     2.20453931
H     -0.66202281     4.25565932     3.31033820
O     -0.12690515    -2.83822165     2.94612494
H     -0.66895664    -3.40477330     2.40081717
H      0.44562106    -2.34298545     2.31829773
O      3.04773838     0.23444978     2.84160143
H      2.68408220    -0.34149412     2.08658018
H      3.56386872     0.86997002     2.40258600
O      3.25280793     3.46666134    -0.25412116
H      2.58279224     3.04006102    -0.81836591
H      3.70763459     4.15990443    -0.83038875
O      0.10502950     3.38147433    -3.38630051
H     -0.54793276     4.11411590    -3.00864170
H      0.69368385     4.06535811    -3.91453330
O     -3.35534753     0.31700963    -3.53248020
H     -2.77108788    -0.21008331    -2.99436376
H     -3.85329960    -0.22023232    -4.04086616
O     -0.08076305    -2.97489908    -3.49190713
H      0.45982812    -2.48748918    -4.16791514
H      0.58263885    -3.43243724    -2.97148065
O     -3.28240455     3.59546703    -0.29590432
H     -2.79876512     2.97674212     0.27839396
H     -3.78209639     2.92208893    -0.92577212
O      3.10350386     0.31767484    -3.47512139
H      2.73470997    -0.38319634    -3.98668779
H      3.68185852    -0.15942732    -2.94566913
O     -1.79544077    -1.15248728     4.42623970
H     -1.18663964    -1.77966486     3.87936338
H     -2.24545411    -1.82985555     4.89412503
O      4.60965428     1.78947414     1.35180076
H      4.09198334     2.44360233     0.83486840
H      5.17390731     2.38130438     1.86591432
O     -1.47179702    -4.47396175     1.36794091
H     -2.21786872    -3.97034013     0.93951090
H     -2.03841708    -5.07625267     1.85605123
60
iceIc n=20 T=150K rep=0
O      0.03507249     0.15193168    -0.19290802
H     -0.54454532    -0.29841617    -0.84656358
H      0.61535613     0.80587228    -0.91302848
O      1.49127719    -1.36042163     1.29757376
H      2.04190147    -1.85707372     0.67680590
H      0.99768764    -0.64728919     0.69439333
O      1.52341790     1.99501506    -1.78641706
H      1.05284508     2.41721997    -2.41334517
H      2.00366802     1.27261719    -2.25000507
O     -1.73481069     1.97625920     1.13260446
H     -1.06722688     1.44373354     0.48912142
H     -2.14699614     1.37394526     1.67976917
O     -1.82482276    -1.03164743    -2.03474478
H     -1.21208066    -1.71124385    -2.40941521
H     -2.36801594    -1.71512178    -1.38015005
O     -3.17633634     0.31452203     2.84414820
H     -2.61479391    -0.20884256     3.35485177
H     -3.60820292     0.95012477     3.48051927
O     -3.11627392    -2.74875655    -0.30102766
H     -3.79316232    -3.49748948    -0.74144558
H     -3.56467693    -2.32144115     0.23458154
O      3.00326331    -2.79958462    -0.18156685
H      2.61200157    -3.36348833    -0.80686671
H      3.61178830    -3.40842900     0.10408937
O      0.07822809     3.53172231     3.00386330
H     -0.47250053     2.98602467     2.35648406
H     -0.41025084     3.98019531     3.44882844
O     -0.08474954    -2.76486665     2.78353981
H     -0.57294683    -3.47956343     2.34237803
H      0.40172677    -2.20545212     2.30361090
O      3.18009598     0.32931578     2.82785656
H      2.42218466    -0.26508664     2.35555527
H      3.60900428     0.81481426     2.43987584
O      3.15289367     3.61050480    -0.21422472
H      2.65929014     3.18868474    -0.85458799
H      3.67222081     4.18174300    -0.90048232
O     -0.21763683     3.47190463    -3.50241528
H     -0.65076888     4.12782318    -2.73630513
H      0.40113103     3.97674717    -3.96879675
O     -3.24096306     0.41245805    -3.69026922
H     -2.48934757    -0.06780422    -3.11485216
H     -3.82398059    -0.17298216    -4.16783258
O     -0.11377697    -2.73133725    -3.43972456
H      0.49679332    -2.47935458    -4.17652887
H      0.32438308    -3.43050265    -2.95327661
O     -3.27349611     3.56908028    -0.53646537
H     -2.87856053     3.01981390     0.10469347
H     -3.73950330     3.02553788    -1.06757910
O      3.25364427     0.43322953    -3.54757961
H      2.83196693    -0.32600631    -4.01818190
H      3.64022441    -0.14734798    -2.96113694
O     -1.56375157    -1.11653052     4.45666755
H     -0.98591370    -1.56838568     3.99669683
H     -2.06551547    -1.72649014     5.05033804
O      4.88265054     1.98651988     1.50845359
H      4.26297557     2.49470664     0.92356414
H      5.39327770     2.61689512     1.94223060
O     -1.55334347    -4.36825041     1.22554623
H     -2.25992997    -3.81218176     0.75590036
H     -2.15769113    -4.96984941     1.64388822
60
iceIc n=20 T=150K rep=1
O     -0.10457117     0.34252729    -0.11981345
H     -0.62059380    -0.28464932    -0.69247825
H      0.49704476     0.77042191    -0.78357675
O      1.53789257    -1.13921248     1.32883691
H      2.09757531    -1.92779383     0.67155481
H      0.87281942    -0.75348924     0.80003863
O      1.43385559     1.86967815    -1.96154241
H      1.04417018     2.50104192    -2.43533567
H      1.79989048     1.27567443    -2.39992078
O     -1.78211712     1.88545821     1.25216910
H     -1.24196284     1.24713913     0.75456253
H     -2.36433455     1.27480999     1.83813112
O     -1.67291769    -1.18769366    -1.96139537
H     -1.14796692    -1.90036631    -2.60302599
H     -2.00877899    -1.74916456    -1.37918511
O     -3.35671962     0.44436748     2.77281833
H     -2.89051137    -0.31355083     3.34463737
H     -3.88491614     0.84497157     3.39660904
O     -3.07530217    -2.72076791    -0.31205022
H     -3.67923372    -3.22303915    -0.93340949
H     -3.60601590    -2.09271307     0.02439107
O      2.85749858    -2.83569942    -0.39020866
H      2.46343277    -3.31715505    -0.85004552
H      3.37563060    -3.28118993     0.16042381
O     -0.18067533     3.47398953     2.91713088
H     -0.48934364     2.97090359     2.31374961
H     -0.61772441     3.94492497     3.40244444
O      0.04978092    -2.95040599     2.91882753
H     -0.43237002    -3.37602735     2.42031557
H      0.59478828    -2.28966938     2.28903897
O      3.21055147     0.30298046     2.83987275
H      2.60155912    -0.03629735     2.27697523
H      3.84988828     0.77710965     2.40411974
O      3.29143942     3.63024443    -0.13330834
H      2.59657055     3.08908304    -0.67936201
H      3.70604325     4.15062006    -0.77560497
O     -0.07063743     3.53061325    -3.62942317
H     -0.44360235     4.07734095    -3.01746568
H      0.53731654     4.20427837    -4.06286495
O     -3.22099956     0.51725899    -3.39445895
H     -2.63575057    -0.17717935    -2.87313383
H     -3.86286414    -0.24388159    -3.83051450
O     -0.19057170    -2.69957723    -3.60208477
H      0.43188479    -2.16278893    -4.11399059
H      0.46039776    -3.51538994    -2.96044343
O     -3.33776540     3.47383546    -0.43401361
H     -2.76904675     2.86319157     0.13841886
H     -3.73758580     2.82656100    -0.78395494
O      3.04121593     0.22672340    -3.37155086
H      2.60066019    -0.19029962    -3.98423503
H      3.68824654    -0.18600504    -3.01969360
O     -1.71802167    -1.15108453     4.29873685
H     -1.00710966    -1.75673089     4.16149252
H     -2.42940153    -1.69676478     4.97975166
O      4.68956681     1.73014594     1.35922089
H      4.21315917     2.27882611     0.71911994
H      5.30063713     2.47341579     1.80649700
O     -1.62522106    -4.40404369     1.21381573
H     -2.16339735    -3.90031505     0.62060732
H     -2.03751853    -4.72164479     1.76907309
60
iceIc n=20 T=150K rep=2
O     -0.22002765     0.24958182    -0.26516656
H     -0.68850784    -0.30330387    -0.85501741
H      0.34128609     0.47788746    -0.96336013
O      1.67218476    -1.23008947     1.51050557
H      2.21079407    -1.80358548     0.61062523
H      1.21609883    -0.66900290     0.73608195
O      1.42185465     1.99376011    -1.83205539
H      0.94303504     2.58788859    -2.25170944
H      2.11760872     1.59272308    -2.34289781
O     -1.63779022     1.90288677     1.39082256
H     -1.00473723     1.50610112     0.77924295
H     -2.23580155     1.41412936     1.85466136
O     -1.59021299    -1.16688475    -2.13689172
H     -1.06970418    -1.66396671    -2.54882919
H     -2.05467205    -1.74533684    -1.44749159
O     -3.14000418     0.39233040     2.76581961
H     -2.60642978    -0.18240573     3.38383074
H     -3.72415713     0.85610727     3.41787784
O     -3.14104776    -2.86730615    -0.36386221
H     -3.48059072    -3.40910030    -0.87467721
H     -3.69917173    -2.33127613     0.24820938
O      3.02112864    -2.71384977    -0.21809610
H      2.41988975    -3.35453683    -0.70380754
H      3.52492999    -3.46485323     0.27325744
O     -0.10752015     3.53312415     2.89189671
H     -0.64536258     2.98231943     2.36565604
H     -0.68112088     3.89498152     3.41530360
O     -0.13423639    -2.99700762     2.93527595
H     -0.73163246    -3.19458840     2.26504062
H      0.34818474    -2.26989891     2.43009609
O      3.36426032     0.11668186     2.96616625
H      2.79207122    -0.34174358     2.31363069
H      3.89696867     0.74351463     2.32922413
O      3.04594240     3.47083290    -0.23347437
H      2.64054882     2.81053299    -0.92333651
H      3.63543141     4.10118675    -0.83320374
O     -0.10190048     3.58270301    -3.50589922
H     -0.64957675     4.08635767    -2.97944636
H      0.46660855     3.98243283    -4.12024408
O     -3.36066432     0.61747013    -3.48804387
H     -2.81687056    -0.18170331    -3.03013911
H     -3.82118287    -0.10922849    -4.07052421
O      0.04479589    -2.73750815    -3.35287761
H      0.58174815    -2.25963909    -4.09789903
H      0.64880570    -3.37673325    -2.75042384
O     -3.19980475     3.40887638    -0.26308574
H     -2.52806195     2.99524756     0.31813288
H     -3.66988214     2.93284728    -0.89334199
O      3.06105327     0.41529664    -3.59246304
H      2.42880479    -0.04044252    -4.16716256
H      3.60446977    -0.24416214    -3.04074957
O     -1.61828487    -1.11338488     4.31595422
H     -1.04136167    -1.75654129     3.86290026
H     -2.09442149    -1.50433893     4.86474985
O      4.69979508     1.73601316     1.16681238
H      4.18115516     2.49068049     0.65119598
H      5.31763060     2.51528230     1.74250975
O     -1.57230603    -4.43828183     1.24849237
H     -2.18651454    -3.96676943     0.80717779
H     -2.25012890    -4.94610607     1.79022286
60
iceIc n=20 T=150K rep=3
O     -0.17035257     0.47372783    -0.06755735
H     -0.63973517     0.02457175    -0.72891171
H      0.38833170     0.94485672    -0.79385618
O      1.37516214    -1.45060880     1.38125500
H      1.97589663    -1.85729168     0.79616661
H      1.01416902    -0.84050085     0.75869008
O      1.50738667     1.88796782    -1.86916845
H      0.85918231     2.48130789    -2.45645503
H      2.14502042     1.41369361    -2.39313689
O     -1.82591691     2.08577301     1.33674654
H     -1.21195318     1.64023693     0.69531134
H     -2.11539132     1.45482753     1.89735916
O     -1.51639657    -1.06937030    -1.96583438
H     -1.12746757    -1.78770146    -2.49803812
H     -2.11675516    -1.80269898    -1.41111479
O     -3.09036458     0.28631570     2.61474289
H     -2.55506270    -0.03288539     3.28162699
H     -3.80279509     0.92177105     3.14201072
O     -3.14260006    -3.08350588    -0.47378279
H     -3.72309883    -3.57800777    -0.98982113
H     -3.69878857    -2.58655575     0.20881387
O      3.18223946    -2.83071587    -0.37859084
H      2.66396569    -3.53514488    -0.92630908
H      3.79453845    -3.44009578     0.18382816
O      0.09816413     3.51474318     2.99265986
H     -0.42098138     2.98168967     2.44802782
H     -0.36421800     4.04405916     3.51545446
O     -0.04836961    -2.96983021     2.96853542
H     -0.59648357    -3.58970720     2.36270496
H      0.49474794    -2.42591072     2.35378120
O      2.96643997     0.20871395     3.07679731
H      2.55726715    -0.16562584     2.46223411
H      3.70940201     0.76812110     2.53645647
O      3.07325893     3.51647899    -0.27850552
H      2.73631196     2.99023415    -0.91544330
H      3.65010484     4.22368630    -0.59017299
O      0.08397611     3.49827863    -3.69950647
H     -0.61766486     4.03767143    -3.00909533
H      0.67747469     4.19798281    -4.00666584
O     -3.07860570     0.38422461    -3.37318754
H     -2.70146833    -0.13517754    -2.90650530
H     -3.76378767    -0.12878163    -4.02095943
O     -0.11481865    -2.80111775    -3.70043815
H      0.54738494    -2.35606353    -4.18553453
H      0.47002304    -3.43844502    -3.08374753
O     -3.15905350     3.63278404    -0.32427020
H     -2.71563173     3.10988662     0.16202609
H     -3.69919512     3.07122294    -0.75919645
O      3.14174564     0.35979752    -3.55336088
H      2.67504516    -0.19414086    -4.13078779
H      3.51923518    -0.19923801    -2.85308308
O     -1.48396505    -1.16098684     4.39965658
H     -1.03610707    -1.81240333     3.87881268
H     -2.18551261    -1.59323628     4.87566866
O      4.86690518     1.83024338     1.40237826
H      4.24452803     2.48496475     0.84962748
H      5.41253802     2.45720529     1.91984493
O     -1.59358684    -4.46746399     1.41936851
H     -2.06159062    -3.98640098     0.79421560
H     -2.19829927    -4.99833661     1.94322181
60
iceIc n=20 T=150K rep=4
O     -0.03011275     0.32113015    -0.13798901
H     -0.49823013    -0.21145102    -0.78680267
H      0.48473173     0.87864087    -0.70211030
O      1.55581325    -1.40671284     1.36097421
H      2.03052224    -1.84087389     0.72890195
H      1.04641037    -0.82319868     0.83554063
O      1.55791442     1.96520103    -1.79914719
H      0.96882719     2.44134899    -2.43109640
H      2.02383293     1.32137249    -2.37996834
O     -1.65178153     1.95901599     1.14220607
H     -1.17030731     1.44688209     0.62461290
H     -2.21422152     1.32665376     1.75583174
O     -1.60621101    -1.23285696    -1.84981651
H     -1.17601023    -1.76141885    -2.46990928
H     -2.10723059    -1.75143024    -1.35548098
O     -3.21552689     0.23134811     2.72424045
H     -2.62783080    -0.32563954     3.26720572
H     -3.66800943     0.84764041     3.33909580
O     -3.18098430    -3.07807227    -0.37589904
H     -3.80034312    -3.54971097    -0.92443144
H     -3.66141193    -2.51472075     0.20507921
O      2.95346743    -2.89752354    -0.34201582
H      2.60532157    -3.58975602    -0.88213252
H      3.56561545    -3.39515006     0.31055023
O      0.04232606     3.54126232     2.85767243
H     -0.63715555     3.02625379     2.32286105
H     -0.66761903     4.05742999     3.56319532
O     -0.03899731    -2.92292315     2.93115328
H     -0.56010185    -3.30329273     2.21478623
H      0.52611846    -2.26140523     2.44018796
O      3.32345809     0.31527260     2.91637008
H      2.76742984    -0.35162199     2.43271680
H      3.80431364     0.83153960     2.38196416
O      3.04102145     3.43323607    -0.28799971
H      2.46436163     2.93767776    -0.98594535
H      3.63940605     3.82597176    -0.90921712
O      0.05204484     3.46810873    -3.38007005
H     -0.48051944     4.09707396    -2.83633442
H      0.54660797     4.06182542    -3.93784751
O     -3.36083511     0.25732237    -3.53062005
H     -2.76218479    -0.24391396    -3.03443540
H     -3.92331309    -0.32096281    -4.06732023
O     -0.16568220    -2.90188044    -3.51480586
H      0.38209043    -2.30370235    -4.02543766
H      0.46597373    -3.44842484    -3.07684831
O     -3.17411272     3.60958202    -0.32064113
H     -2.73640853     3.00119950     0.19948589
H     -3.73952389     3.00379717    -0.94859998
O      2.94239686     0.40327142    -3.53572920
H      2.42115445    -0.14603237    -4.08465269
H      3.51971256    -0.22583871    -3.07543416
O     -1.71985117    -1.33656847     4.48288787
H     -1.10399632    -1.75486902     3.90589430
H     -2.24293788    -1.91911562     4.91626604
O      4.60809154     1.99661024     1.12119308
H      4.14082280     2.53551547     0.59125240
H      5.13020535     2.53432074     1.75570799
O     -1.72420681    -4.44923799     1.34162071
H     -2.30158821    -3.91416451     0.69222192
H     -2.30698364    -4.97459054     1.84884981
60
iceIc n=20 T=150K rep=5
O     -0.08388837     0.12295358    -0.19846309
H     -0.71733333    -0.41432382    -0.81295450
H      0.50962989     0.78523257    -0.74954190
O      1.46719374    -1.32897023     1.32892228
H      2.05416889    -1.82350394     0.78880494
H      0.98744484    -0.84090956     0.76911900
O      1.40141900     1.90617372    -1.82965847
H      0.88783033     2.48843432    -2.64160660
H      2.04565068     1.49126142    -2.43666938
O     -1.66945532     1.94759199     1.39755265
H     -0.90401982     1.50071689     0.80781426
H     -2.12998465     1.06958147     1.81960821
O     -1.71991790    -1.27297533    -2.00896652
H     -0.91769891    -1.71959150    -2.54502966
H     -2.06850983    -2.02694512    -1.51839623
O     -3.26831565     0.48059217     2.81547121
H     -2.87248221    -0.11936217     3.45022958
H     -3.93605375     0.98650416     3.42375719
O     -3.19388432    -2.86702368    -0.19752601
H     -3.90136611    -3.44526199    -0.78743928
H     -3.92444293    -2.15507148     0.15135986
O      3.04607891    -2.88606976    -0.16491074
H      2.42362943    -3.35444938    -0.93361324
H      3.58041282    -3.40817224     0.20347088
O     -0.01979934     3.41601843     2.89753525
H     -0.51106624     2.92309972     2.38527764
H     -0.54864781     3.91005232     3.41334628
O     -0.03517657    -2.76792660     2.89579104
H     -0.57836067    -3.31868967     2.37017582
H      0.53671474    -2.41888981     2.32220900
O      3.21022620     0.29994052     3.02589582
H      2.51327164    -0.21335770     2.47613685
H      3.64079483     0.74213555     2.45670818
O      3.07051975     3.61841775    -0.08190007
H      2.54287951     3.04489520    -0.69722602
H      3.63120984     4.02690837    -0.71196268
O     -0.02794529     3.62159687    -3.54634587
H     -0.54137242     4.19862443    -3.02437219
H      0.39393580     4.12481123    -4.15864572
O     -3.14361374     0.48741414    -3.48838653
H     -2.69639441    -0.04606381    -3.03053932
H     -3.69621195    -0.12672001    -4.05462829
O     -0.13304805    -2.96750388    -3.49898018
H      0.36933568    -2.21878997    -3.98490712
H      0.38161575    -3.37377841    -3.10783552
O     -3.07121601     3.62853991    -0.40105255
H     -2.49026649     3.03121686     0.08242257
H     -3.74941873     3.02682019    -1.06333968
O      3.20550100     0.46648815    -3.54334726
H      2.69166110    -0.31914701    -3.90150887
H      3.77458962    -0.28773143    -2.88495141
O     -1.79649262    -1.21578372     4.44479436
H     -1.23988067    -1.88155439     3.83499607
H     -2.14626588    -1.94204287     4.95064707
O      4.89475378     1.91736029     1.19315964
H      4.32802334     2.51476221     0.76146316
H      5.39374586     2.43677636     1.64834938
O     -1.68553376    -4.42824101     1.31681893
H     -2.30814283    -3.87801063     0.77989934
H     -2.27059975    -5.15652350     1.80858611
72
iceIc n=24 T=50K rep=0
O     -0.14668789     0.44709753    -0.05507077
H     -0.65771888     0.00671655    -0.63041346
H      0.45524399     0.93884714    -0.66021660
O      1.51106351    -1.20163717     1.71321063
H      2.11097087    -1.70497280     0.99098076
H      0.99240067    -0.54466003     0.91737236
O      1.44955610     1.99340790    -1.65757160
H      0.91319122     2.48728088    -2.34687459
H      2.04142538     1.34530872    -2.12224265
O     -1.50909763     2.17378249     1.47084795
H     -1.06550016     1.46281741     0.90617812
H     -2.18952350     1.45010878     2.05969697
O     -1.71550909    -0.96883792    -1.72729058
H     -1.06511205    -1.67997969    -2.41395010
H     -2.21889200    -1.61658898    -1.32135840
O     -3.24520599     0.45696569     2.99555393
H     -2.73993057     0.04771088     3.54023664
H     -3.94810295     1.00482028     3.54998705
O     -3.34110871    -2.68632786    -0.09451660
H     -3.86880233    -3.29188557    -0.59045394
H     -3.72965677    -2.14236295     0.42307907
O      3.15927381    -2.76207338    -0.11510702
H      2.73002547    -3.30226891    -0.66893322
H      3.74083183    -3.38493757     0.40081449
O      0.12537323     3.56311190     3.09331005
H     -0.39606341     3.16727127     2.66157349
H     -0.47659241     4.19910525     3.55649279
O     -0.03374689    -2.77229618     3.13066520
H     -0.65629478    -3.27703966     2.62612968
H      0.32573670    -2.18818237     2.50451020
O      3.11859597     0.55111384     3.21566999
H      2.57556506     0.01137902     2.62996228
H      3.65396681     0.97459329     2.70509653
O      3.19575254     3.55459900     0.05394811
H      2.72893951     3.19630363    -0.69610098
H      3.82842684     4.18882532    -0.59147857
O     -0.02890983     3.63474540    -3.18784076
H     -0.39338392     4.04270970    -2.64125464
H      0.42396778     4.09040941    -3.76290756
O     -3.40076638     0.29830567    -3.37377010
H     -2.67454352    -0.08203077    -2.85207906
H     -3.79743677    -0.10431398    -3.98569686
O     -0.25597769    -2.70696070    -3.32190201
H      0.45893682    -2.14487323    -3.79001492
H      0.47666330    -3.33547814    -2.82279898
O     -3.21796794     3.79589032    -0.02633151
H     -2.64395403     3.13902137     0.57953922
H     -3.88437028     3.07329391    -0.52888517
O      3.14800712     0.45353006    -3.24923721
H      2.75020891    -0.11308776    -3.79149034
H      3.68158607    -0.15302333    -2.84279888
O     -1.65742963    -1.03938780     4.63571936
H     -0.96579715    -1.70848743     4.12426066
H     -2.13354383    -1.59887551     5.06198752
O      4.80277272     1.88746028     1.51360146
H      4.24487802     2.48791933     1.17957220
H      5.32265061     2.56456083     2.11901301
O     -1.54633336    -4.47347725     1.39893146
H     -2.11152104    -3.75927267     0.96643192
H     -2.06357125    -4.99516061     1.93536799
O      1.65931677    -4.33641850    -1.71212319
H      2.08330905    -4.91697673    -2.13141017
H      1.06432589    -4.88791909    -1.06527844
O      1.69542270     1.94097651     4.69570152
H      1.10301797     2.53825950     4.08988920
H      2.29765796     1.41436287     4.14182733
O     -4.74008637     1.99301231    -1.58844433
H     -4.28551326     1.43931894    -2.18937863
H     -5.35624983     2.50954113    -2.18168596
O      1.48411699    -1.10400655    -4.81612975
H      1.96419163    -1.75706207    -5.30599484
H      1.09298073    -0.51040071    -5.30835813
72
iceIc n=24 T=50K rep=1
O     -0.09656472     0.47565117     0.00121512
H     -0.64285465    -0.03714582    -0.48640133
H      0.43054989     1.04705930    -0.65069721
O      1.70235675    -1.35111054     1.59285701
H      2.15228058    -1.72037042     0.91034943
H      1.15032778    -0.70059331     1.19152507
O      1.45710270     2.14392666    -1.69668324
H      0.98078234     2.63342026    -2.29351884
H      2.06732023     1.47184556    -2.19640313
O     -1.78698739     2.08096359     1.58009710
H     -1.20452186     1.49770170     1.04403779
H     -2.42800320     1.55628535     2.05164692
O     -1.58764704    -1.09338773    -1.59883947
H     -1.10253297    -1.56810659    -2.11455377
H     -2.12083982    -1.78057798    -1.00896852
O     -3.20684115     0.31608047     2.97059713
H     -2.59666315    -0.05721033     3.66149782
H     -3.77775194     0.91681826     3.50690742
O     -3.18497746    -2.76362149    -0.07411731
H     -3.78924041    -3.27244386    -0.62647852
H     -3.83522075    -2.06605719     0.35730609
O      3.12423757    -2.72001629    -0.06999199
H      2.76213554    -3.15524918    -0.63544644
H      3.54854874    -3.34559283     0.48963263
O     -0.05150001     3.48543174     3.03715475
H     -0.67480039     2.99920841     2.47658200
H     -0.69235978     4.02664948     3.59410511
O     -0.09235782    -2.85335093     3.18067403
H     -0.61544839    -3.35536495     2.53844572
H      0.44719864    -2.30002689     2.60351496
O      3.18726771     0.39675710     3.18178201
H      2.69717318    -0.16560430     2.69727775
H      3.74188624     1.01768158     2.57375086
O      3.19407393     3.59616155    -0.09208171
H      2.61329161     3.21361722    -0.74435141
H      3.74905157     4.12776074    -0.56506157
O     -0.21662099     3.56575341    -3.34401143
H     -0.85153122     4.02573504    -2.83990551
H      0.40359530     4.21759873    -3.74712362
O     -3.16067046     0.67536255    -3.25524809
H     -2.60437927    -0.08109242    -2.79096710
H     -3.71429914    -0.08096407    -3.81670531
O     -0.03927801    -2.85320344    -3.21463634
H      0.44759373    -2.28505274    -3.75589057
H      0.42609395    -3.34183980    -2.69364414
O     -3.26321113     3.67723303     0.00460364
H     -2.70014547     3.08475365     0.46390234
H     -3.84579413     2.96656607    -0.63933912
O      3.20043467     0.59465683    -3.34780979
H      2.63830737    -0.04142685    -3.89588413
H      3.76924895     0.15399574    -2.79646263
O     -1.83275088    -0.97517656     4.84551019
H     -1.20683733    -1.63284191     4.29045031
H     -2.24078117    -1.64001443     5.35309896
O      4.79726633     1.85714962     1.54529683
H      4.23019890     2.34897765     0.97650800
H      5.19940328     2.58410783     2.02363208
O     -1.45221129    -4.24859304     1.69761186
H     -1.97277368    -3.71441209     0.99680336
H     -2.18991654    -4.82057011     2.12363888
O      1.47545344    -4.21692540    -1.64728991
H      1.94502874    -4.78733444    -2.19152063
H      0.90054657    -4.84000197    -1.13758376
O      1.70150442     1.97859536     4.71796104
H      1.17698203     2.56605199     4.08209348
H      2.22480875     1.50153643     4.15803207
O     -4.90138683     1.98784768    -1.52874520
H     -4.28274802     1.48608231    -2.13910311
H     -5.40038277     2.63976849    -2.15316981
O      1.47902649    -1.09095251    -4.77821169
H      2.14311639    -1.75264943    -5.37816360
H      1.05144534    -0.58580476    -5.50662198
72
iceIc n=24 T=50K rep=2
O     -0.00840582     0.47688115    -0.04724243
H     -0.63862076    -0.10170316    -0.60558411
H      0.48130181     0.84503312    -0.60016140
O      1.45525802    -1.23666083     1.35046278
H      1.90551594    -1.73956500     0.81652398
H      1.10868500    -0.61160077     0.78176659
O      1.37951916     2.04782202    -1.67958562
H      1.07214775     2.40367491    -2.26463502
H      2.13973615     1.50218217    -2.16649094
O     -1.50290504     2.14028297     1.49129747
H     -1.24503827     1.57304254     1.03769156
H     -2.13304283     1.57563524     1.99364337
O     -1.58313743    -1.10238676    -1.75301954
H     -0.94803776    -1.67653705    -2.31271459
H     -2.17112437    -1.82041408    -1.32291813
O     -3.24188096     0.23380499     3.05382431
H     -2.73338801    -0.07930791     3.63259791
H     -3.69680696     0.81582960     3.70554582
O     -3.19313204    -2.67315433    -0.14219370
H     -3.79358771    -3.31226415    -0.61924444
H     -3.83936741    -2.28700548     0.33349371
O      3.18325940    -2.86977003    -0.21825760
H      2.62195173    -3.18634078    -0.77985804
H      3.78296814    -3.30876080     0.28296096
O      0.03406725     3.45306285     3.11403762
H     -0.61312967     2.88901824     2.67611897
H     -0.49455748     3.94024355     3.69576094
O     -0.08973247    -2.87153008     3.21598971
H     -0.57637929    -3.30010884     2.44025689
H      0.56281206    -2.27286623     2.59242484
O      3.14842456     0.41581298     3.21662242
H      2.68861660    -0.19876515     2.76111698
H      3.46807112     0.89081557     2.61383698
O      3.16030161     3.67170856    -0.09434796
H      2.63149456     3.12792425    -0.55151142
H      3.69245156     4.09089426    -0.57915559
O      0.20308979     3.55596808    -3.42843943
H     -0.62061877     4.12656802    -3.02943360
H      0.71177034     4.19365681    -3.81283507
O     -3.24978459     0.62759566    -3.23590017
H     -2.70616748    -0.04905069    -2.61559447
H     -3.69153313     0.03340369    -3.72869044
O     -0.13557053    -2.75865178    -3.36934386
H      0.40080245    -2.28944714    -4.01636228
H      0.45027364    -3.19928538    -2.96600230
O     -3.14114021     3.78565152    -0.22652349
H     -2.89035645     3.24580601     0.48780618
H     -3.78966135     3.19565438    -0.67078629
O      2.93106535     0.40629650    -3.33991113
H      2.52309904    -0.22990506    -3.93353327
H      3.53155515    -0.31688520    -2.74998857
O     -1.79535525    -0.94843467     4.63353196
H     -1.28443699    -1.49940140     3.98025785
H     -2.21922697    -1.66519010     5.31763638
O      4.83252701     1.88620626     1.31990219
H      4.34406671     2.47212955     0.84156185
H      5.15856531     2.32998518     1.94275115
O     -1.62216327    -4.49714880     1.60445060
H     -2.28310975    -3.95158276     0.90329868
H     -2.10757003    -4.78719437     2.22120282
O      1.59169296    -4.34865943    -1.64173462
H      2.01027742    -4.97539584    -2.21167014
H      0.82523263    -4.89473558    -1.14477521
O      1.66327523     1.93304866     4.88030628
H      1.13957836     2.56703316     4.17662904
H      2.02986519     1.33112267     4.27078005
O     -4.91615012     1.96443231    -1.87913860
H     -4.36760956     1.33982390    -2.53205988
H     -5.41420477     2.40122559    -2.45480529
O      1.57928065    -1.25253512    -4.85395743
H      2.27346795    -1.91749496    -5.25245685
H      1.21296721    -0.61179727    -5.33997518
72
iceIc n=24 T=50K rep=3
O     -0.10039724     0.38754959     0.05599518
H     -0.55304518    -0.27346273    -0.69254794
H      0.52962448     1.02691742    -0.61592601
O      1.64280695    -1.14911235     1.66844375
H      2.15285236    -1.65391162     0.96303672
H      1.02294093    -0.65709668     1.00767175
O      1.43879752     2.12095822    -1.72251389
H      0.96390621     2.67686937    -2.14697253
H      2.06611060     1.57167713    -2.25852112
O     -1.66268916     2.08560765     1.45350099
H     -1.11311493     1.34563499     1.10753314
H     -2.27415188     1.46638623     2.02591633
O     -1.57944700    -1.13515543    -1.61283385
H     -1.02499365    -1.85393881    -2.32195598
H     -2.04914347    -1.63447147    -0.98094117
O     -3.14951657     0.54879080     3.02713373
H     -2.63770797    -0.07138933     3.66760751
H     -3.57066580     1.02728752     3.56731128
O     -3.34889034    -2.89920407    -0.14607678
H     -3.93248487    -3.43759488    -0.59892391
H     -3.56754360    -2.36079075     0.41990983
O      3.03374963    -2.81653965    -0.07970287
H      2.51783221    -3.36776091    -0.58442017
H      3.68315619    -3.27217535     0.32383773
O      0.02937095     3.61810928     3.00922801
H     -0.59369962     3.04040732     2.46842098
H     -0.42523896     4.07718568     3.53679388
O     -0.04299356    -2.79738123     3.18206718
H     -0.53263586    -3.35498484     2.39740280
H      0.40808346    -2.23356186     2.51429944
O      3.13656529     0.47508758     3.22420843
H      2.64498260    -0.09008295     2.50522100
H      3.50313491     0.94927618     2.65111131
O      3.32634605     3.78791821     0.00113776
H      2.61394670     3.24681156    -0.63613022
H      3.68217142     4.18039005    -0.70928009
O      0.02487815     3.42857809    -3.21372199
H     -0.58796306     4.08575204    -2.79114771
H      0.48136546     4.10482129    -3.88975485
O     -3.20268120     0.57998638    -3.35383062
H     -2.76227914    -0.15149326    -2.85204932
H     -3.88007563     0.04195589    -3.82635650
O     -0.01437531    -2.90088918    -3.25892138
H      0.52205555    -2.36825893    -3.77961375
H      0.62117009    -3.37740754    -2.62537400
O     -3.16474635     3.68290222    -0.09198305
H     -2.54488218     3.20948633     0.40292465
H     -3.70150969     3.19001475    -0.56249874
O      3.23483277     0.45572358    -3.14076387
H      2.64551212    -0.19779955    -3.67983821
H      3.68485511    -0.08801089    -2.64745932
O     -1.59016770    -1.25315868     4.71968068
H     -1.05175668    -1.67543742     4.27544725
H     -2.23263972    -1.72668239     5.17160882
O      4.80647942     2.09141941     1.61240562
H      4.25243450     2.70620478     0.96365048
H      5.34620486     2.61955416     2.12212434
O     -1.53042025    -4.26454308     1.34266240
H     -2.05096011    -3.72897306     0.87243062
H     -2.06828625    -4.92813315     2.00363723
O      1.58488440    -4.24874143    -1.61649865
H      2.19341095    -4.87996394    -2.10672965
H      1.13058911    -4.80786273    -1.13697814
O      1.68381293     2.10620154     4.69040131
H      1.01668162     2.62803388     4.10738480
H      2.12020844     1.44269267     4.00938605
O     -4.74198045     2.04937867    -1.58807209
H     -4.16483138     1.52847918    -2.17379903
H     -5.33140217     2.59056804    -2.23763496
O      1.54719674    -1.20426467    -4.81318392
H      2.15813088    -1.64107446    -5.37786287
H      1.10094909    -0.59958379    -5.39294701
72
iceIc n=24 T=50K rep=4
O     -0.09116622     0.37637643    -0.00229802
H     -0.63410792    -0.07262246    -0.66866112
H      0.52819032     1.04632627    -0.63097337
O      1.57918053    -1.11354648     1.56758079
H      2.16266465    -1.65571587     1.02123366
H      1.03199973    -0.57983618     1.12412418
O      1.53817717     2.17698262    -1.63798796
H      0.98039789     2.67443850    -2.16576386
H      2.02057550     1.51821406    -2.17953098
O     -1.54764702     2.11035364     1.51031310
H     -1.00693496     1.49247315     0.94457537
H     -2.13820719     1.50948342     1.93770828
O     -1.64091203    -1.14823645    -1.64293801
H     -1.17224297    -1.79038379    -2.17116364
H     -2.18517469    -1.67741178    -1.13874818
O     -3.14208199     0.47093927     3.08867437
H     -2.60250445    -0.15042180     3.71836709
H     -3.53773439     1.06294854     3.62066544
O     -3.33704584    -2.72404165    -0.05114522
H     -3.83766011    -3.32761727    -0.60678778
H     -3.97408426    -2.16772488     0.40444579
O      3.17944273    -2.74472562    -0.18895570
H      2.66276010    -3.27189374    -0.71064685
H      3.69634249    -3.40491851     0.32542338
O     -0.00266484     3.57126251     3.13805303
H     -0.61838213     3.02440333     2.60871119
H     -0.58570350     4.02001757     3.80521462
O     -0.03494283    -2.68492385     3.08250638
H     -0.66575056    -3.14133458     2.52328541
H      0.45073765    -2.18590820     2.54113444
O      3.12545161     0.41760716     3.13347272
H      2.66119329    -0.13869628     2.56971425
H      3.64579621     0.88000987     2.48570213
O      3.15605075     3.57483656     0.10531675
H      2.53907030     3.06528900    -0.47007282
H      3.63011574     4.14291168    -0.51188790
O     -0.11620623     3.48245220    -3.23256612
H     -0.61295922     4.10198959    -2.67421114
H      0.38126037     4.02603274    -3.84572758
O     -3.35320672     0.52677602    -3.29454501
H     -2.76873104     0.04177099    -2.66340786
H     -3.77727531    -0.17053072    -3.92079371
O     -0.05697008    -2.81592782    -3.25435093
H      0.50445982    -2.14001336    -3.85177483
H      0.52650121    -3.31179199    -2.72762513
O     -3.15865308     3.62035655    -0.06460018
H     -2.63736230     3.07480006     0.49176624
H     -3.74941186     3.01573181    -0.64915350
O      3.22075007     0.54407939    -3.07440100
H      2.63736025     0.03347308    -3.64787279
H      3.83330735    -0.10318086    -2.76428150
O     -1.55006417    -1.23620738     4.64261813
H     -1.01192443    -1.82925778     4.11149864
H     -2.08291559    -1.75817431     5.14499169
O      4.68882602     1.84051223     1.51885735
H      4.20391101     2.54907634     1.05412258
H      5.31124511     2.29703085     2.08375496
O     -1.69572873    -4.32514490     1.47756953
H     -2.32419971    -3.85406395     0.88010977
H     -2.23792506    -4.85097456     2.11173773
O      1.49201278    -4.26059059    -1.77743380
H      2.01398651    -4.75567138    -2.28974312
H      1.03266429    -4.89518463    -1.32562505
O      1.52581385     1.98269118     4.84556461
H      0.97061542     2.37835898     4.19551023
H      2.20046680     1.59543643     4.38024709
O     -4.77863545     2.10440159    -1.67031894
H     -4.32475495     1.55769000    -2.13957210
H     -5.38234368     2.58504588    -2.20976923
O      1.37461261    -1.12563874    -4.82745590
H      2.05527883    -1.61720393    -5.37708940
H      0.90751841    -0.66925539    -5.38191245
72
iceIc n=24 T=50K rep=5
O      0.08491686     0.34856274    -0.15123474
H     -0.52309295    -0.28702435    -0.60612439
H      0.47001262     0.97560416    -0.59986736
O      1.57359875    -1.13729672     1.47527256
H      2.27656993    -1.74429613     1.05433492
H      1.04066409    -0.69231338     0.84641772
O      1.50584647     1.99269830    -1.46874634
H      1.22178396     2.47391376    -2.17294218
H      1.93784143     1.40772681    -2.13433327
O     -1.74916118     2.04348492     1.50117838
H     -1.27642596     1.49667049     0.96022785
H     -2.35913737     1.56001720     1.99810146
O     -1.65209580    -0.93804343    -1.69259921
H     -1.05185787    -1.71047200    -2.36118721
H     -2.12321858    -1.59802713    -1.13821033
O     -3.00665103     0.57574424     3.16986987
H     -2.76471368    -0.16750307     3.63135363
H     -3.76860889     1.01852506     3.81271641
O     -3.27169382    -2.82696101    -0.05038784
H     -3.95528402    -3.20723694    -0.57594576
H     -3.81347047    -2.25088716     0.50446869
O      3.26824852    -2.72031448    -0.02167403
H      2.62780405    -3.26376647    -0.52805537
H      3.69040990    -3.17598621     0.61800853
O      0.14987106     3.63118434     2.96076558
H     -0.61130487     3.13365994     2.79512229
H     -0.13219603     4.04388397     3.95394685
O     -0.24208068    -2.71768705     3.27702082
H     -0.54373001    -3.41506226     2.45598819
H      0.41562500    -2.40395824     2.67842243
O      3.02089118     0.31391144     3.16620038
H      2.63854233    -0.07258653     2.36048631
H      3.57158696     0.96636307     2.78287813
O      3.16032925     3.61949973    -0.12185049
H      2.63047817     3.10380711    -0.53079913
H      3.69018952     4.19878043    -0.63474840
O     -0.10261742     3.59093781    -3.42930746
H     -0.68978916     4.03157905    -2.79119293
H      0.54180171     4.26852271    -3.61870054
O     -3.17503533     0.41183328    -3.36354130
H     -2.60111141    -0.15162063    -2.69342873
H     -3.63298241    -0.14024735    -3.77017976
O     -0.08344987    -2.51390989    -3.12743919
H      0.37311698    -2.17465306    -3.68233373
H      0.36218443    -3.14968338    -2.65708783
O     -3.30850238     3.70193728    -0.15258422
H     -2.51180818     3.23023426     0.16055379
H     -3.77977025     3.05099970    -0.42723202
O      3.19279233     0.57898827    -3.37407325
H      2.63351939     0.10102834    -3.86257444
H      3.68150567    -0.03658720    -2.68322821
O     -1.57392515    -1.36258113     4.83177209
H     -1.15338345    -1.89700081     4.25542809
H     -2.28887897    -1.86203630     5.20482782
O      4.69909730     1.82628232     1.48750010
H      4.19582613     2.49314250     1.07597828
H      5.23490024     2.55174784     1.94183332
O     -1.55408144    -4.21864923     1.53229666
H     -2.11792881    -3.65524586     1.07341388
H     -2.25376799    -4.79961027     1.97288810
O      1.63882504    -4.31789977    -1.50712520
H      2.09129071    -4.64287159    -2.13218259
H      1.18689090    -4.95765484    -1.04115353
O      1.70169140     2.18474460     4.64751554
H      1.20138063     2.62465601     4.09067664
H      2.26858139     1.77321936     4.17474309
O     -4.74356931     2.10031368    -1.77256473
H     -4.27055045     1.56215104    -2.24190220
H     -5.28926013     2.63667326    -2.17830167
O      1.56506270    -1.16548859    -4.98561616
H      2.16884334    -1.64052305    -5.46256068
H      1.00850297    -0.69817411    -5.48747060
72
iceIc n=24 T=150K rep=0
O     -0.17972171     0.40716588    -0.04948944
H     -0.69500684    -0.20838051    -0.60133907
H      0.43124234     0.90016458    -0.56257661
O      1.53598563    -1.03873503     1.77145226
H      1.90192231    -1.65311311     1.08146813
H      0.80320946    -0.59574403     1.23509099
O      1.49774600     1.93556441    -1.80401439
H      0.88803171     2.37815213    -2.39440523
H      2.00962759     1.37604755    -2.41023926
O     -1.67926849     2.06412342     1.41604242
H     -1.11737079     1.53803534     1.03596461
H     -2.05139982     1.56695287     2.20057997
O     -1.83250071    -1.08956654    -1.67350676
H     -1.20949181    -1.55034592    -2.20076771
H     -2.21042233    -1.66190851    -1.08609307
O     -3.26785621     0.34278302     3.05496191
H     -2.67427099    -0.14260090     3.61922749
H     -3.73312541     0.86404276     3.69392598
O     -3.11803573    -2.78036992    -0.02921489
H     -3.67285454    -3.35147279    -0.62238491
H     -3.60095707    -2.24613021     0.38016276
O      2.92108875    -2.83468761    -0.05365164
H      2.68024960    -3.48135369    -0.69073124
H      3.72541877    -3.34335399     0.44997430
O      0.06737200     3.59839887     2.93128126
H     -0.49337422     3.07696490     2.44509324
H     -0.39367909     4.25583734     3.50934574
O     -0.14552733    -2.74913111     3.09826650
H     -0.77227178    -3.25945520     2.48642651
H      0.36104208    -2.14463376     2.48727819
O      3.26519288     0.40546476     3.34897984
H      2.67592449     0.08659316     2.62185092
H      3.73162851     1.07179129     2.79314788
O      3.04534502     3.66515593     0.03846573
H      2.45317941     3.14104027    -0.54270759
H      3.65623007     4.11661123    -0.66841331
O     -0.07463783     3.46841518    -3.25039961
H     -0.43728674     4.10749686    -2.68260674
H      0.45263891     4.13251707    -3.86714130
O     -3.17321409     0.32529214    -3.34294831
H     -2.67878440    -0.25288075    -2.61880297
H     -3.68395864    -0.35115493    -3.80721911
O     -0.21352969    -2.80859111    -3.40002907
H      0.40035612    -2.22170516    -3.92222065
H      0.32625536    -3.37722228    -2.85919692
O     -3.20040606     3.91167186    -0.22129542
H     -2.66512776     3.28759296     0.23557668
H     -3.72601091     3.16051585    -0.72254093
O      3.20435057     0.57440025    -3.12856959
H      2.62519846    -0.07982856    -3.64741968
H      3.69601046    -0.20285935    -2.55484284
O     -1.84426884    -0.98109337     4.64254497
H     -1.05453639    -1.70265527     4.05117925
H     -2.21716729    -1.80198898     5.21719544
O      4.79368914     1.89924505     1.37696119
H      4.20951537     2.54110881     0.86468811
H      5.38708167     2.52444925     2.06065606
O     -1.55843031    -4.43686582     1.62664793
H     -2.38428010    -3.86090182     1.18638840
H     -2.23311698    -5.02012558     2.16335498
O      1.57317779    -4.33578897    -1.74197026
H      2.12288709    -4.92756569    -2.35308519
H      0.98571855    -4.92422687    -1.08879206
O      1.57134084     1.97307763     4.74573966
H      0.94715454     2.63888855     4.00499922
H      2.14085437     1.49827153     4.05628396
O     -4.73876678     1.97860007    -1.68681622
H     -4.22182402     1.46952415    -2.23921049
H     -5.26718851     2.54629723    -2.35833321
O      1.52631573    -1.19646630    -4.79115038
H      2.17220893    -1.61366648    -5.35353932
H      0.96054505    -0.52971173    -5.34083544
72
iceIc n=24 T=150K rep=1
O      0.05376490     0.27346666     0.01348652
H     -0.72239847    -0.09947706    -0.46847515
H      0.41899578     0.91210757    -0.66557284
O      1.81809788    -1.39598194     1.51134251
H      2.27533681    -1.78355040     0.77313868
H      1.16139481    -0.71947896     1.01720043
O      1.53750117     1.86038103    -1.64981318
H      1.08371609     2.35865179    -2.28367001
H      1.95252257     1.39497635    -2.35607585
O     -1.45382973     2.11497782     1.30596258
H     -1.19793528     1.37065625     0.73021730
H     -1.75324639     1.52256372     2.01066324
O     -1.67263092    -1.08888269    -1.55672181
H     -1.17497411    -1.74399709    -2.15877965
H     -2.18288103    -1.81257584    -1.16202169
O     -3.16333299     0.21417260     3.07125928
H     -2.69010753    -0.14231994     3.60001241
H     -3.80853666     0.81862424     3.59838378
O     -3.09976867    -2.72902291    -0.12405340
H     -3.51382109    -3.35508103    -0.78756968
H     -3.77102216    -2.41555646     0.21054773
O      3.23643279    -2.62749810    -0.04251374
H      2.68814516    -3.16052449    -0.58507678
H      3.71231337    -3.22604497     0.46507258
O      0.05427449     3.66339278     3.11288067
H     -0.66128971     3.11250490     2.56970105
H     -0.67338270     4.25094870     3.63442453
O     -0.06943844    -2.70891837     3.08856615
H     -0.65226001    -3.12355621     2.39974890
H      0.42417505    -2.14400721     2.55615007
O      2.94499260     0.47195774     3.35956111
H      2.58629803     0.03716076     2.58145140
H      3.80532901     0.94307161     2.69054173
O      3.19099395     3.58490107    -0.04936832
H      2.52025050     3.09447743    -0.69789619
H      3.77617110     3.96586485    -0.74290330
O     -0.07570794     3.38361517    -3.28417437
H     -0.52813249     4.08733093    -2.68319312
H      0.35703821     4.16095143    -3.69133254
O     -3.26596273     0.58361030    -3.01955807
H     -2.87193621    -0.24183902    -2.59734910
H     -3.64996331    -0.06909708    -3.67204385
O     -0.10301261    -2.62867915    -3.20627954
H      0.48588222    -2.35169664    -3.90036093
H      0.56882137    -3.15903855    -2.67340219
O     -3.30459529     3.81491718     0.00585804
H     -2.71887274     3.37010951     0.47352399
H     -3.56069443     2.90501363    -0.74508631
O      2.93065714     0.39578629    -3.22920137
H      2.57428037    -0.33900934    -3.77963140
H      3.65401229    -0.31267358    -2.56491638
O     -1.77846696    -1.25482156     4.68200413
H     -1.25375319    -1.63025921     4.19703105
H     -2.16762703    -1.67034213     5.20916572
O      4.67093889     1.96168914     1.63435564
H      4.27802750     2.65577801     1.00805879
H      5.29719934     2.62986652     1.98308250
O     -1.59383649    -4.44845866     1.61407798
H     -2.08524715    -3.59867515     0.93276829
H     -2.09087568    -4.77158682     2.08066142
O      1.48423496    -4.29608268    -1.80366117
H      2.04081798    -4.93049241    -2.19866790
H      0.89423697    -4.84194119    -1.09315283
O      1.68351507     1.99803618     4.75261659
H      1.08596794     2.58068170     3.99198857
H      2.14740824     1.40641130     4.19451453
O     -4.69007121     1.99736095    -1.52656938
H     -4.24282797     1.52178806    -2.38512052
H     -5.18556669     2.79339630    -2.14359110
O      1.75838609    -1.14685845    -4.78266892
H      2.29660667    -1.74952712    -5.51825753
H      1.13531190    -0.48240853    -5.29011227
72
iceIc n=24 T=150K rep=2
O     -0.11918586     0.39121891    -0.02489602
H     -0.63122301    -0.09231655    -0.66981051
H      0.39716407     0.96336206    -0.74622731
O      1.56151846    -1.25750290     1.54295243
H      2.03497729    -1.78480415     0.94360180
H      1.00411798    -0.61039456     1.14290325
O      1.50869094     2.02674755    -1.58895139
H      1.03174701     2.55630936    -2.19681105
H      2.09481010     1.44288008    -2.16156310
O     -1.61007117     1.99308093     1.43305957
H     -1.03273318     1.35805556     0.88149463
H     -2.01703719     1.41861321     1.99613256
O     -1.84900856    -1.11780518    -1.63163312
H     -1.16960235    -1.45609780    -2.25228530
H     -2.04837984    -1.75966442    -1.12859463
O     -3.11579335     0.38171076     3.12970623
H     -2.65736700    -0.08192631     3.68835560
H     -3.75490691     0.94313192     3.63054354
O     -3.08873832    -2.68177837    -0.10190813
H     -3.72112432    -3.24990050    -0.56325202
H     -3.71990716    -2.23863420     0.54708736
O      3.16549245    -2.81233380    -0.11664306
H      2.59054019    -3.34336851    -0.58481558
H      3.72695402    -3.36914142     0.42812553
O     -0.07845186     3.67896829     3.15418495
H     -0.63682704     3.14224696     2.55521791
H     -0.63561351     4.12892022     3.70350437
O      0.02424819    -2.69012727     3.00905511
H     -0.54126699    -3.20779006     2.53774618
H      0.53559350    -2.19737903     2.46989190
O      3.19572758     0.41272266     3.10838325
H      2.65967576    -0.12951345     2.49503866
H      3.65455365     0.86609680     2.47607940
O      3.07754273     3.59531892     0.02062316
H      2.50612414     2.96933357    -0.57350810
H      3.74002135     4.08952222    -0.50627020
O     -0.07452024     3.51489694    -3.21569864
H     -0.55297570     4.11884163    -2.67740069
H      0.48173631     4.12709501    -3.79713370
O     -3.20063717     0.36031551    -3.23082915
H     -2.71201689    -0.25211973    -2.74460074
H     -3.66594700    -0.28501942    -3.79759877
O     -0.02990441    -2.75392772    -3.20728234
H      0.53582742    -2.24703159    -3.72510022
H      0.51043816    -3.34313485    -2.64896396
O     -3.17896856     3.68397053    -0.09015194
H     -2.59437164     3.04367105     0.41775713
H     -3.61285380     3.01935737    -0.61781696
O      3.10127727     0.31642365    -3.23304829
H      2.71056996    -0.04803981    -3.97718134
H      3.39322363    -0.40076697    -2.62631534
O     -1.57748079    -1.20406938     4.68478753
H     -1.06131854    -1.62757240     4.02914825
H     -1.92172432    -1.80381186     5.29509865
O      4.55563398     1.96968080     1.68463636
H      4.04428433     2.44267074     1.01816297
H      5.09386519     2.61912600     2.15525950
O     -1.61712276    -4.35408582     1.46779831
H     -2.14554161    -3.99398828     0.79056951
H     -2.21105321    -4.94080026     2.00803830
O      1.48667277    -4.25420129    -1.65833283
H      2.08196758    -4.82605000    -2.27250062
H      0.97271312    -4.77714129    -1.22433411
O      1.66062578     2.20985218     4.66296318
H      1.06400528     2.69201006     4.15469195
H      2.15046094     1.54104719     4.06878030
O     -4.83432887     2.03436292    -1.62850285
H     -4.31407197     1.41924998    -2.15172511
H     -5.34709354     2.46284639    -2.25612141
O      1.51042921    -1.17728431    -4.91168512
H      2.03399439    -1.73697514    -5.48792959
H      0.94303597    -0.70816574    -5.49987777
72
iceIc n=24 T=150K rep=3
O      0.06963015     0.35740333    -0.09725994
H     -0.35183573    -0.04861717    -0.64086013
H      0.47781984     0.79604997    -0.77635106
O      1.58047007    -1.16537950     1.35273910
H      2.00675195    -1.77928020     1.02167591
H      1.13844445    -0.66955428     0.89242389
O      1.50053218     2.06287996    -1.58024797
H      0.89288409     2.53157189    -1.94613775
H      2.02162717     1.49481279    -2.47255810
O     -1.64540406     2.04080007     1.41353501
H     -1.04564664     1.46757693     1.04441965
H     -2.32683213     1.52061556     1.97793138
O     -1.54828622    -1.07314021    -1.63249506
H     -1.13842941    -1.60029372    -2.21392318
H     -2.19752686    -1.41253651    -1.20712613
O     -3.19440423     0.46820823     2.86139378
H     -2.62173454    -0.03980294     3.55179959
H     -3.81629573     1.02935385     3.65471452
O     -3.34209697    -2.91389485    -0.11045283
H     -3.86981937    -3.26184094    -0.52099456
H     -4.00078324    -2.21317751     0.54909250
O      3.25150757    -2.88604481    -0.14157957
H      2.72370957    -3.37930902    -0.84288957
H      3.73195221    -3.49974578     0.47835632
O     -0.14040742     3.59929945     3.07786152
H     -0.67124182     3.14286861     2.50171303
H     -0.81486946     4.21297555     3.66770348
O      0.01119089    -2.90931591     2.97177631
H     -0.61607469    -3.42594893     2.51036145
H      0.33703888    -2.36170398     2.36536858
O      3.14008844     0.38517065     3.05627678
H      2.66178118    -0.49987850     2.54969627
H      3.64725864     0.90743895     2.57381090
O      3.32087147     3.59362421     0.12362119
H      2.75526402     3.06302887    -0.40128456
H      3.74146305     4.17985971    -0.47335066
O     -0.11278904     3.45327092    -3.34733136
H     -0.78196158     3.96792997    -2.62037085
H      0.44119100     4.15259587    -3.81104756
O     -3.32949332     0.38808523    -3.47365837
H     -2.57855219     0.10976515    -2.78696803
H     -3.54036584    -0.24543626    -3.94828191
O     -0.03496910    -2.74174018    -3.36617710
H      0.38303458    -2.05640958    -3.69692324
H      0.48713837    -3.44732057    -2.89619771
O     -3.26694746     3.67938206    -0.09100271
H     -2.55120705     3.02338019     0.35123786
H     -3.84033904     2.99211755    -0.70914410
O      3.25340695     0.48212682    -3.26135207
H      2.74798096    -0.20117338    -3.73746859
H      3.63497408    -0.18883604    -2.60366584
O     -1.60126388    -1.11417070     4.77476253
H     -1.11298429    -1.60473349     4.19272878
H     -2.24298987    -1.83950410     5.16362671
O      4.82420738     1.85678002     1.38534893
H      4.07942785     2.48584093     1.06739391
H      5.30949938     2.52834132     2.00315200
O     -1.54531199    -4.10694880     1.42173393
H     -2.20798950    -3.63223873     0.94999212
H     -2.11820427    -4.74693370     2.00628139
O      1.56339023    -4.25657137    -1.80050363
H      2.11944212    -4.79051919    -2.14396509
H      1.11064252    -5.07221773    -1.14861267
O      1.61872696     1.83715654     4.64619836
H      1.18343582     2.35697505     4.12742578
H      2.19694927     1.41315817     4.06208690
O     -4.68838819     1.79821835    -1.47734046
H     -4.15945033     1.64513865    -2.37547454
H     -5.33799417     2.51814491    -2.19085844
O      1.59373685    -1.17601086    -4.83677248
H      2.23133333    -1.78066328    -5.34928755
H      1.10412664    -0.57196289    -5.45786251
72
iceIc n=24 T=150K rep=4
O      0.19095336     0.36499741     0.08020740
H     -0.48571583    -0.12952931    -0.55406223
H      0.68369801     0.93002210    -0.53475667
O      1.46683702    -1.23060861     1.56406415
H      2.06017359    -1.71737610     1.11903189
H      1.09949914    -0.62444500     0.89153669
O      1.55162032     2.05551281    -1.67388444
H      1.14081010     2.52812635    -2.27074255
H      2.12388016     1.52994435    -2.21212201
O     -1.51896298     2.10861111     1.50652493
H     -1.07418444     1.43677895     0.98273249
H     -2.05131652     1.51699116     2.06989052
O     -1.65832555    -1.13053540    -1.64777428
H     -1.13741796    -1.60215342    -2.13610188
H     -2.20034218    -1.58886754    -1.02110453
O     -3.29520521     0.57680314     3.02678823
H     -2.83493247    -0.20058598     3.61299288
H     -3.76593128     0.98508693     3.67183551
O     -3.16407178    -2.79445548    -0.03792617
H     -3.78272290    -3.33001510    -0.64175604
H     -3.72116760    -2.27046298     0.51534874
O      3.07954592    -2.62566591     0.01860794
H      2.59237332    -3.23372822    -0.63088196
H      3.64277520    -3.28990240     0.46210477
O     -0.00547331     3.68368004     3.07382329
H     -0.57705667     3.10748582     2.54038121
H     -0.63173028     4.24659933     3.58637896
O      0.03617327    -2.79820689     3.19266688
H     -0.49573378    -3.42234657     2.60394157
H      0.51734013    -2.25290681     2.51034715
O      3.18502228     0.35204907     3.02591713
H      2.66932378    -0.25657074     2.48339975
H      3.60118129     0.86768072     2.38556907
O      3.08902611     3.61916594    -0.02853259
H      2.56299651     3.01862796    -0.56089277
H      3.58137412     4.14924695    -0.61166269
O     -0.03090654     3.50886514    -3.37722105
H     -0.50864264     4.12210938    -2.86166228
H      0.50201770     4.06477506    -3.96516715
O     -3.32172676     0.52573322    -3.35253192
H     -2.76875363    -0.00486639    -2.76472704
H     -3.83859081    -0.08047995    -3.90733026
O     -0.00463870    -2.85277754    -3.39759679
H      0.51168665    -2.26649426    -4.03642572
H      0.54525572    -3.36685541    -2.86109891
O     -3.50219813     3.54462422    -0.16086672
H     -2.90499986     2.93292367     0.37480173
H     -3.88756514     2.96957915    -0.72090390
O      3.14239200     0.54865842    -3.35566156
H      2.60241996    -0.06610665    -3.92832774
H      3.58332964     0.00850874    -2.78880656
O     -1.72847472    -1.04605601     4.69691006
H     -1.11250791    -1.70674187     4.15817310
H     -2.20898528    -1.62421654     5.25097830
O      4.68205166     1.96977886     1.55164516
H      4.05696136     2.56463175     1.00557916
H      5.12130645     2.45496645     2.02927953
O     -1.70618206    -4.27307988     1.55930790
H     -2.27303980    -3.79183756     1.08529426
H     -2.20128932    -4.84285874     2.04825245
O      1.56968877    -4.34974741    -1.76291927
H      2.22362082    -4.82227469    -2.25097550
H      1.00662772    -4.91692864    -1.39647128
O      1.55089723     2.07405311     4.78282917
H      1.16394488     2.66493535     4.18043523
H      2.08193938     1.48382432     4.20272159
O     -4.90065775     1.99916420    -1.56922174
H     -4.39625216     1.42829491    -2.19372430
H     -5.49035907     2.54318052    -2.17796602
O      1.55293647    -1.25120630    -4.94596127
H      2.11633944    -1.82489427    -5.45750048
H      0.99913828    -0.72681534    -5.45683563
72
iceIc n=24 T=150K rep=5
O     -0.07326141     0.41517784     0.00579917
H     -0.57481634    -0.00780108    -0.51423822
H      0.56496144     0.93369784    -0.60101882
O      1.55291963    -1.25062595     1.65022346
H      2.04233850    -1.80686659     1.03869907
H      1.02779785    -0.56706664     1.08542633
O      1.58718673     2.22726008    -1.68342053
H      1.15195470     2.60542043    -2.31296268
H      2.08025858     1.51312090    -2.31389252
O     -1.50767085     2.12682510     1.55825802
H     -1.03959085     1.49036285     1.06352304
H     -2.13682111     1.52604766     2.09572635
O     -1.70890794    -1.25292922    -1.72311592
H     -1.20222240    -1.78052471    -2.24783734
H     -2.28102627    -1.78539538    -1.17479029
O     -3.27229225     0.58620974     3.11527380
H     -2.73127251     0.03105501     3.64705599
H     -3.86147512     1.05454640     3.66977158
O     -3.18630638    -2.93326630    -0.18113153
H     -3.75830809    -3.45854575    -0.66749581
H     -3.66372185    -2.34350738     0.47983601
O      3.26675337    -2.59115649    -0.17781917
H      2.70237078    -3.20158207    -0.69339207
H      3.79362940    -3.20656963     0.40751639
O      0.06171863     3.51579851     2.89690746
H     -0.50193141     3.01982130     2.37558272
H     -0.40361326     4.05407592     3.41097532
O     -0.05704199    -2.83441505     3.29005885
H     -0.60426104    -3.42004590     2.69608471
H      0.26956252    -2.21186479     2.49568332
O      3.07382342     0.44976058     3.07491782
H      2.54340000    -0.11682090     2.46315319
H      3.74830251     0.99678509     2.49214217
O      3.18702777     3.54796497     0.06945695
H      2.55007939     3.11089543    -0.45129706
H      3.74754797     4.15282714    -0.56002070
O      0.06360408     3.56731989    -3.24129065
H     -0.43414506     4.12870785    -2.79419865
H      0.60848341     4.13212800    -3.76659984
O     -3.23706157     0.38157136    -3.22252500
H     -2.76059875    -0.16768884    -2.64980839
H     -3.79257133    -0.17496695    -3.75660385
O     -0.01854592    -2.72735980    -3.20317279
H      0.46452342    -2.20949373    -3.82573104
H      0.46828404    -3.31153763    -2.72820850
O     -3.24323875     3.69908230    -0.14478547
H     -2.69762437     3.16335810     0.36978234
H     -3.63828017     2.97005533    -0.75300024
O      3.26118308     0.40751013    -3.31579192
H      2.70155958    -0.17584963    -3.89428943
H      3.70957875    -0.11241747    -2.83434397
O     -1.71740206    -1.07604087     4.63281833
H     -1.17259666    -1.70777161     4.08480105
H     -2.28305251    -1.62309890     5.15117178
O      4.74378976     1.89674489     1.51948971
H      4.19679680     2.45790446     0.98891512
H      5.30889104     2.48340106     1.97524377
O     -1.66322548    -4.35117739     1.58954875
H     -2.19756528    -3.77071020     0.95037320
H     -2.14924306    -4.91294001     2.01244858
O      1.59292492    -4.34492196    -1.71918745
H      2.14844393    -4.97244537    -2.20559034
H      1.02249203    -4.88612698    -1.18223004
O      1.66032731     2.13460741     4.85496159
H      1.10004374     2.59281463     4.24022442
H      2.06609273     1.52142371     4.23889437
O     -4.69109951     2.01403302    -1.60475682
H     -4.23162637     1.50548108    -2.35207598
H     -5.31548365     2.56305620    -1.97606372
O      1.71013194    -1.07870057    -4.65502274
H      2.15595297    -1.69938696    -5.23627179
H      1.23910340    -0.51798106    -5.33966014
36
iceII n=12 T=50K rep=0
O      0.62516796    -0.33950815    -0.47442688
H      0.82277299    -1.10029781    -0.05590907
H      0.06588142     0.15821136     0.02832976
O      0.22060400    -0.84889430    -3.17367313
H      0.12927444    -1.73814276    -3.02747450
H      0.48906090    -0.47974481    -2.25349175
O      1.16656381    -2.66410644     0.87782424
H      0.46627339    -3.35048117     0.74809994
H      1.94450387    -3.04446379     0.71861271
O      2.71046876     1.17030551    -1.49231302
H      2.25543999     1.60777872    -2.26107827
H      1.88947176     0.53999382    -1.23526662
O     -1.39991008     0.77939042     1.39885627
H     -1.13639600     1.37524552     2.05942558
H     -2.20880870     1.23043550     0.94724918
O     -0.70061369     2.13162581    -1.85239607
H     -0.43021469     2.49984658    -1.03065180
H     -0.04773044     2.30121616    -2.58287520
O     -2.11036619    -2.51331032    -0.68041149
H     -2.44696527    -1.69367452    -1.00482412
H     -1.55128608    -2.80818186    -1.34185153
O      0.54963589     3.01634495     0.13503846
H      1.32778160     3.48099749    -0.13085318
H      0.99134145     2.56101413     0.82033650
O     -2.81498468    -0.09985041    -2.12184109
H     -2.11153557     0.59408671    -1.97611054
H     -3.65626457     0.23479609    -1.82884727
O      1.37865656    -0.85660142     2.88561298
H      2.23252128    -1.34689732     3.18392338
H      1.22183594    -1.44906053     2.05511153
O      1.80689381     1.67595919     2.18371015
H      1.67698481     0.79639529     2.25078275
H      2.01905250     1.88107177     3.04666846
O     -1.76558327    -1.92594454     1.96954486
H     -1.81362796    -2.29708789     1.16066481
H     -1.67481852    -0.96852464     1.80956831
36
iceII n=12 T=50K rep=1
O      0.70190466    -0.30562497    -0.46331050
H      0.77104011    -1.08226018    -0.16185555
H     -0.14470033     0.18298890     0.05496356
O      0.34083299    -0.74748622    -3.10764524
H      0.14071582    -1.76158028    -2.98809273
H      0.51882174    -0.39517026    -2.24520265
O      1.29446267    -2.61020855     0.73936817
H      0.55747108    -3.43905605     0.41680336
H      1.96715188    -2.99179098     0.55619534
O      2.76688956     1.17452289    -1.42736896
H      2.31503929     1.72931100    -2.31115099
H      1.99467278     0.68603385    -1.24636104
O     -1.35553581     0.63303719     1.30096632
H     -1.06923735     1.26997594     2.17962804
H     -2.11709932     1.04983133     0.98804552
O     -0.86300211     2.14393745    -1.99903088
H     -0.45413461     2.57526727    -1.17041358
H     -0.39344027     2.31753556    -2.64921991
O     -2.15617518    -2.28104581    -0.80655170
H     -2.31887568    -1.42598288    -1.18842456
H     -1.54556442    -2.79152835    -1.28461288
O      0.47912062     3.12628641     0.14087168
H      1.28823085     3.62866959    -0.13811788
H      0.76086765     2.80697249     0.94182419
O     -2.66159228    -0.03627326    -2.15279909
H     -2.01842473     0.67115609    -2.12234164
H     -3.53358089     0.19996366    -2.02020847
O      1.70120676    -0.96637467     2.94290694
H      2.46792283    -1.35307629     3.44457759
H      1.37610920    -1.55465683     2.16416178
O      1.79190056     1.74165627     2.28225952
H      1.71513043     0.81601905     2.24528718
H      1.97215157     1.97012131     3.11913369
O     -1.58273471    -1.95136276     1.93103722
H     -1.88444066    -2.19523611     0.96797272
H     -1.53573641    -1.02499865     1.87021935
36
iceII n=12 T=50K rep=2
O      0.50590298    -0.36517282    -0.42411261
H      0.71788597    -1.13269010    -0.00091102
H     -0.15445870     0.11727342     0.17942171
O      0.09938560    -1.01957051    -3.21678662
H     -0.04791394    -1.82884332    -2.98376385
H      0.37247714    -0.60349002    -2.28871305
O      1.10205786    -2.71468210     0.68870522
H      0.52663798    -3.42050249     0.65056429
H      1.90071719    -3.04151858     0.55293213
O      2.72320226     1.11145608    -1.53043837
H      2.24109347     1.73968995    -2.17633737
H      1.99240840     0.68355549    -1.12981733
O     -1.18077837     0.89812641     1.25904198
H     -1.01719127     1.40092392     2.08412019
H     -2.10357884     1.22853542     1.00875047
O     -0.82895908     2.20277843    -1.83795370
H     -0.39573654     2.51782492    -0.93217903
H     -0.18280472     2.37172618    -2.48092014
O     -2.16540980    -2.44247389    -0.75059678
H     -2.54910726    -1.61301430    -1.18753489
H     -1.38669342    -2.81831878    -1.26663605
O      0.65024649     3.20022398     0.16982415
H      1.35253685     3.72489580    -0.10960587
H      1.01769548     2.72491173     0.87415432
O     -2.61659232    -0.02881650    -1.97398172
H     -2.08234619     0.65978949    -1.94915304
H     -3.48244270     0.42294619    -1.78047869
O      1.47739984    -0.91969192     2.95349573
H      2.36954972    -1.40457238     3.31766813
H      1.23545983    -1.50902606     2.20054485
O      1.86026474     1.80699974     2.28167909
H      1.89584428     0.86213615     2.33207305
H      1.93401563     1.99218437     3.29030849
O     -1.68449374    -1.78757071     2.09046078
H     -1.99386755    -2.02435456     1.13929442
H     -1.52458444    -0.84602642     2.02231752
36
iceII n=12 T=50K rep=3
O      0.45781658    -0.33871297    -0.54503022
H      0.68491159    -1.08179363    -0.26193522
H     -0.01175776     0.25839153    -0.00767489
O      0.12038924    -0.87122356    -3.27940937
H      0.21720557    -1.74054656    -3.04058257
H      0.32824175    -0.57896313    -2.47664892
O      0.93913519    -2.81445947     0.61984027
H      0.49504831    -3.70224601     0.73048341
H      1.94417391    -3.19251444     0.59276690
O      2.69906242     1.32785750    -1.62303217
H      2.23811183     1.76800978    -2.34475722
H      2.03633746     0.74084186    -1.25775609
O     -1.31993978     0.72419781     1.24227613
H     -1.08941201     1.43768158     1.92184775
H     -2.18076146     1.08837491     1.06002783
O     -0.87647177     2.16296684    -1.76244782
H     -0.43297391     2.60268940    -1.10384372
H     -0.26260602     2.37208560    -2.52049713
O     -2.22599802    -2.58339006    -0.57575102
H     -2.46335968    -1.66376998    -1.06844061
H     -1.56495715    -2.88356197    -1.25843910
O      0.45941937     3.36549738     0.18990349
H      1.27374079     3.90436850    -0.09075532
H      0.95812570     2.78235591     0.83077722
O     -2.79201649    -0.09601083    -2.03304659
H     -1.97851045     0.57304048    -1.89810893
H     -3.49183016     0.25202428    -1.81250097
O      1.42939203    -0.99674439     2.89427814
H      2.13166987    -1.46456140     3.25662635
H      1.16071746    -1.57186181     2.04595720
O      1.80368075     1.68885074     2.21205331
H      1.66165157     0.86702384     2.26120616
H      2.17792670     2.03351697     3.13479576
O     -1.80774858    -1.89275421     1.88140316
H     -1.76663970    -2.30162618     1.00905857
H     -1.50692660    -1.09242939     1.93948140
36
iceII n=12 T=50K rep=4
O      0.60683195    -0.19982325    -0.51111622
H      0.73007546    -1.03051463    -0.02572148
H     -0.03235232     0.19391722    -0.21520628
O      0.14619583    -0.70416335    -3.01438480
H     -0.08061177    -1.72204368    -3.15133868
H      0.35558577    -0.65467664    -2.18841016
O      1.18905190    -2.67096612     0.77107612
H      0.46438263    -3.37493699     0.83599317
H      1.98818206    -3.17690853     0.46471774
O      2.65145132     1.56778877    -1.57099861
H      2.22440910     1.73638246    -2.27487590
H      2.01290712     0.80826087    -1.11211747
O     -1.53772051     0.65268317     1.29374021
H     -1.03488068     1.12438950     2.05445751
H     -2.36047536     1.19570731     1.02595250
O     -1.05494972     2.32919510    -1.97385163
H     -0.50829554     2.52150702    -1.08106163
H     -0.23136365     2.21367339    -2.45856279
O     -1.93821189    -2.51964398    -0.82959719
H     -2.08490126    -1.58556328    -1.53216905
H     -1.38355778    -2.84806820    -1.51600740
O      0.47146399     3.14790244     0.20009882
H      1.05486998     3.70841616    -0.22201439
H      1.10285925     2.71634086     0.81639137
O     -2.83379301    -0.07869124    -2.02320543
H     -2.06106587     0.70728209    -1.99833375
H     -3.56608892     0.36845350    -1.79434459
O      1.40554796    -0.88015796     2.88674871
H      2.27977867    -1.31733983     3.38923345
H      1.14052246    -1.55379801     2.17062902
O      1.94257358     1.87353260     2.29346556
H      2.07701188     0.90039117     2.50476217
H      1.73585232     2.27215414     3.28280929
O     -1.80123341    -1.79123756     2.04920506
H     -1.88513449    -2.24050830     1.24374860
H     -1.50829135    -0.99577143     1.81645030
36
iceII n=12 T=50K rep=5
O      0.69368468    -0.07138647    -0.33384957
H      0.96769858    -1.06080171     0.03501050
H     -0.05573353     0.11874443     0.30775736
O      0.18793940    -0.91392342    -3.34544322
H      0.03882785    -1.94225817    -3.27416676
H      0.29967641    -0.56744165    -2.41809017
O      1.20718956    -2.70514587     0.78064938
H      0.49554254    -3.47321299     0.62367888
H      1.80249469    -3.30188334     0.56012935
O      2.62785905     1.19450337    -1.52173274
H      2.29259461     1.63887956    -2.30605868
H      1.90065999     0.64225353    -1.17035925
O     -1.29410836     0.49952656     1.28119807
H     -1.08562947     1.14096086     2.15984837
H     -2.03936354     1.34678213     0.96482439
O     -0.93030559     2.34183923    -1.96750054
H     -0.55315484     2.65132198    -1.17193779
H     -0.36506217     2.37046125    -2.52278990
O     -2.23948122    -2.46764105    -0.77097650
H     -2.39792967    -1.71428946    -1.18275466
H     -1.41052223    -2.81273248    -1.19206389
O      0.66501668     3.17557590     0.44605095
H      1.20142480     3.68408583    -0.01914636
H      0.88877284     2.60397943     0.97187487
O     -2.65321550     0.00510914    -2.14682818
H     -1.93196064     0.76539461    -1.81807506
H     -3.36347001     0.31245904    -1.99688806
O      1.36494282    -1.04454436     2.94200196
H      2.44292700    -1.42722817     3.19149599
H      1.41108403    -1.61826023     2.16762995
O      1.97415372     1.72060197     2.13828941
H      1.89595271     0.78113610     2.41736137
H      1.93653506     2.02855541     2.91723370
O     -1.64203272    -1.88804942     1.95122963
H     -1.75835550    -1.99221724     1.00324344
H     -1.68798675    -0.84201344     1.95402552
36
iceII n=12 T=150K rep=0
O      0.50731706    -0.25628452    -0.72556965
H      0.62605179    -1.12722803    -0.00741639
H     -0.21413529     0.12740697     0.07453128
O      0.24686518    -1.08325532    -3.54244968
H      0.19295310    -1.98131881    -3.14573678
H      0.39735202    -0.62324100    -2.60692290
O      1.08535962    -2.68556124     0.71496664
H      0.34946859    -3.14132773     0.70241708
H      1.87524222    -3.10337253     0.80564992
O      2.72448217     1.38895759    -1.49104962
H      2.38898811     1.84622438    -2.25306889
H      2.05652263     0.77403424    -1.04245607
O     -1.33509638     0.84315849     1.25448417
H     -1.17356777     1.26377822     2.12832093
H     -2.24459518     1.20432037     1.14231026
O     -0.99339597     2.13696907    -2.08807348
H     -0.54786204     2.60350732    -1.06929051
H     -0.11291841     2.31267212    -2.51246732
O     -1.98351804    -2.43971664    -0.69815392
H     -2.28404210    -1.58900621    -1.35108685
H     -1.44224457    -2.86070166    -1.50707999
O      0.55852902     3.19749345     0.50328508
H      1.33897572     3.88353661     0.04272767
H      0.81803425     2.63181163     1.01242933
O     -3.00504940    -0.19528975    -1.98020090
H     -2.14858835     0.66596676    -1.81908735
H     -3.64069306     0.34800706    -1.88489516
O      1.59051513    -0.94145826     2.88874619
H      2.25946777    -1.41673624     3.36582883
H      1.38247376    -1.32455584     2.14417019
O      1.92437297     1.74180140     2.42916339
H      1.71873294     0.81713064     2.37987423
H      2.10534297     1.95812291     3.42398338
O     -1.69329468    -1.90930798     1.96274530
H     -2.11025718    -2.29978050     1.05779047
H     -1.72040156    -0.87854783     1.79775165
36
iceII n=12 T=150K rep=1
O      0.55772009    -0.18123985    -0.35300333
H      0.77143593    -1.15150117    -0.01082603
H     -0.05523982     0.20226742     0.19683499
O      0.20896708    -0.71228643    -3.08131308
H      0.12798839    -1.63279680    -2.99701410
H      0.22105386    -0.40525500    -2.04296285
O      1.06854702    -2.64918978     0.72070674
H      0.42787475    -3.37392653     0.50508815
H      1.94863519    -3.14145325     0.58970970
O      2.69368198     1.24236508    -1.46432794
H      2.21680201     1.52735357    -2.21749426
H      2.13722465     0.67341901    -1.02127566
O     -1.34491062     0.76660598     1.30211930
H     -1.03922533     1.35919101     2.04814628
H     -2.10096376     1.23129868     0.89782783
O     -0.96661718     2.12596370    -1.82881592
H     -0.56973437     2.51072517    -0.99157253
H     -0.40782325     2.30306869    -2.47039850
O     -2.06838779    -2.46851417    -1.02413709
H     -2.36531669    -1.60003246    -1.29689240
H     -1.43270445    -2.85254270    -1.44997552
O      0.44948595     3.14226916     0.41845499
H      1.05343577     3.70265261    -0.23459886
H      0.99062129     2.51395273     0.93346370
O     -2.72191523    -0.10384297    -1.92117473
H     -2.14041276     0.82375759    -1.99299630
H     -3.57959315     0.31472696    -1.77013597
O      1.46148831    -0.86278901     3.07807005
H      2.23837930    -1.22838395     3.16819622
H      1.16345726    -1.45886046     2.15337239
O      2.09479703     1.71075740     2.20701479
H      1.89970740     0.74877083     2.30421723
H      2.14134734     2.05950092     3.16912465
O     -1.86912039    -1.97846879     2.00737247
H     -1.96461691    -2.20107566     1.13157405
H     -1.82496991    -1.05644975     1.85108586
36
iceII n=12 T=150K rep=2
O      0.68022232    -0.21878788    -0.47072203
H      0.76375112    -1.07099539    -0.06379055
H      0.01051974     0.17679433     0.22681465
O      0.22405872    -0.83332398    -3.08327520
H      0.16585621    -1.82875713    -3.04129698
H      0.41155043    -0.43097099    -2.26178271
O      1.14225772    -2.86072219     0.78343475
H      0.55818674    -3.62229400     0.73288747
H      2.07462408    -3.22762251     0.61720395
O      2.76530612     1.19038666    -1.59555745
H      2.38748970     1.73013793    -2.19752731
H      1.93655011     0.65376222    -1.11831945
O     -1.30836314     0.73207803     1.31800406
H     -1.08632771     1.19258367     2.03578744
H     -2.06243426     1.02191986     0.87580447
O     -1.07706985     2.21880303    -1.80219403
H     -0.60529960     2.56127654    -1.03458766
H     -0.49479956     2.29431209    -2.52936200
O     -2.01975866    -2.39033870    -0.75476432
H     -2.27745186    -1.51946190    -0.96626663
H     -1.45452756    -2.85645646    -1.28520887
O      0.54368742     3.21702530     0.21119956
H      1.34560096     3.69525706    -0.22762587
H      0.86842404     2.59615363     0.84230203
O     -2.82130670     0.03725652    -2.08330410
H     -2.11064384     0.70611371    -2.03690720
H     -3.67716959     0.44923794    -1.92126033
O      1.42965320    -0.94990008     3.05451118
H      2.24721385    -1.37564198     3.36297643
H      1.21477687    -1.54191602     2.20661553
O      1.80710307     1.69169667     2.23077878
H      1.53754287     0.84126763     2.28592798
H      1.98812342     2.07797268     3.17990466
O     -1.83110061    -1.97530412     1.88645416
H     -1.92398697    -2.21525562     0.98428259
H     -1.57703263    -0.95376132     1.89955438
36
iceII n=12 T=150K rep=3
O      0.60225398    -0.34105619    -0.62294239
H      0.80999193    -1.06845675    -0.15330938
H     -0.08965130     0.09324673    -0.13537773
O      0.28693533    -0.80712330    -3.16561488
H      0.02852784    -1.74936264    -3.01519087
H      0.54600712    -0.54740137    -2.28017139
O      1.05636933    -2.83535090     0.88981363
H      0.47629416    -3.71180915     0.63728507
H      1.98121473    -3.09506344     0.54415703
O      2.75920325     1.30207552    -1.49589648
H      2.27000137     1.78647433    -2.13938434
H      1.99138146     0.79214710    -1.14601686
O     -1.27516583     0.80454718     1.13325623
H     -1.05076703     1.31254480     1.83155040
H     -2.14400918     1.17628731     0.80827330
O     -0.95281394     2.25382163    -1.88582437
H     -0.38692268     2.55187374    -1.04998723
H     -0.28087558     2.47108295    -2.64327436
O     -2.16872751    -2.41595703    -0.69143315
H     -2.35187255    -1.55314856    -1.18799461
H     -1.42213931    -2.73192980    -1.36103642
O      0.56406581     3.28192169     0.28688666
H      1.20160950     3.78812088    -0.18358415
H      0.93863039     2.71547551     0.92418727
O     -2.65842830     0.04100961    -2.01452224
H     -1.95817419     0.80290813    -1.96838868
H     -3.52293735     0.43815536    -1.92830507
O      1.50923217    -0.88007354     2.86382176
H      2.25984110    -1.22949191     3.26475897
H      1.26481569    -1.40711283     2.11569502
O      2.01076499     1.64716876     2.29648392
H      1.81131528     0.67202007     2.34008035
H      2.15352632     1.88197625     3.17228632
O     -1.65468939    -1.91793620     1.99272575
H     -1.78610515    -2.35075514     1.11939859
H     -1.45574258    -0.91425240     1.78592024
36
iceII n=12 T=150K rep=4
O      0.50486379    -0.30812078    -0.33777619
H      0.89618133    -0.99543760     0.02599313
H     -0.06684973     0.12166703     0.18437656
O      0.44634317    -0.95527137    -3.18687695
H      0.28063500    -1.71504610    -3.05477925
H      0.50033699    -0.64697321    -2.12931659
O      1.21839821    -2.76235167     0.82711450
H      0.71486656    -3.43480890     0.82728098
H      2.12424812    -3.14379064     0.68949916
O      2.76809661     1.33064629    -1.38316981
H      2.42859834     1.73729443    -2.16485487
H      2.05805676     0.76138204    -1.07894399
O     -1.23581810     0.76266829     1.23866066
H     -1.13733199     1.31079000     1.99059004
H     -2.04989765     1.20031557     0.99854258
O     -1.03225206     2.15913857    -1.99603254
H     -0.59322255     2.41990724    -1.04702105
H     -0.25463248     2.44023578    -2.58613498
O     -2.22704216    -2.30934462    -0.61999686
H     -2.37708873    -1.54026392    -0.93918001
H     -1.44063157    -2.66340139    -1.17518609
O      0.61647118     3.28676409     0.39252319
H      1.20315506     3.95111032     0.08066499
H      0.97363739     2.64803806     0.87325251
O     -2.76433854    -0.11586772    -2.04811723
H     -2.10431740     0.52980722    -1.97050175
H     -3.54013862     0.51888274    -1.74004478
O      1.44011035    -0.91928386     2.84530182
H      2.35055093    -1.21725065     3.20542585
H      1.27738892    -1.33281876     2.14821140
O      1.93273896     1.60931029     2.17636922
H      1.82124519     0.67736831     2.30704758
H      2.19255096     2.03010517     3.12944098
O     -1.64204555    -2.02301772     1.98084999
H     -1.88388108    -2.33418853     0.95057495
H     -1.61252039    -1.10651620     1.83142166
36
iceII n=12 T=150K rep=5
O      0.57440111    -0.19881003    -0.51274561
H      0.99189438    -0.97400387     0.03452873
H     -0.02211462     0.22565719     0.03425261
O      0.33662820    -0.92389040    -3.22052319
H      0.01982027    -1.77092184    -3.16680875
H      0.39346870    -0.54043903    -2.29505098
O      1.18723388    -2.71887357     0.85518010
H      0.64744961    -3.56946133     0.82450273
H      2.06521880    -3.03499820     0.67867141
O      2.69625592     1.30753473    -1.44536652
H      2.33318276     1.90009149    -2.21235582
H      2.04707334     0.82538244    -1.13724613
O     -1.22031282     0.78277889     1.30745935
H     -1.02124168     1.29389376     1.98012478
H     -2.05776612     1.15963352     0.86074021
O     -1.11351433     2.14620337    -1.90921073
H     -0.63904511     2.53735183    -1.14100362
H     -0.41729991     2.18293817    -2.67939430
O     -1.96511524    -2.50150567    -0.68284700
H     -2.21922703    -1.67819044    -1.13499277
H     -1.37887254    -2.84142129    -1.33544420
O      0.53036425     3.13919323     0.41487122
H      1.11532493     3.72214621     0.04609285
H      0.89277443     2.68202719     1.06430712
O     -2.54628731    -0.03663532    -1.97672081
H     -2.07315270     0.71820032    -1.85929645
H     -3.48676752     0.38537696    -1.79103265
O      1.54283283    -0.91748166     2.96166848
H      2.36304024    -1.38268352     3.14926618
H      1.25690717    -1.35954744     2.10325907
O      1.99532575     1.54332280     2.24490839
H      1.68556564     0.65459933     2.31607701
H      2.15945485     1.81514044     3.15574502
O     -1.59136887    -1.90759297     2.02920513
H     -1.71910871    -2.06378210     1.12296010
H     -1.52509216    -0.96327055     2.04157107
48
iceII n=16 T=50K rep=0
O      0.21644697    -0.45552541     0.07513902
H      0.31218481    -1.25525765     0.56387445
H     -0.49671180     0.05180639     0.62012157
O     -0.06572276    -0.81392321    -2.54333875
H     -0.24334537    -1.76765299    -2.40165346
H      0.11636140    -0.51909852    -1.67307332
O      0.62559980    -2.76534482     1.54469819
H     -0.11271524    -3.34356681     1.38189484
H      1.46360703    -3.05228852     1.30881559
O      2.16601815     1.14940894    -0.89260923
H      1.78486777     1.64431017    -1.52609461
H      1.50662734     0.48873380    -0.47236579
O     -1.86576843     0.69259778     1.92748838
H     -1.49006455     1.30050399     2.70744220
H     -2.47477066     1.09846356     1.54884769
O     -1.38798132     2.18850931    -1.25656775
H     -1.08537729     2.54445839    -0.43676625
H     -0.75770013     2.20631460    -1.90165702
O     -2.52538265    -2.42607444     0.09062620
H     -2.81311970    -1.63710233    -0.39708268
H     -1.93444059    -2.85839173    -0.43126094
O     -0.03648274     3.00837552     1.00931123
H      0.55585301     3.63906134     0.60470886
H      0.59757452     2.56089612     1.66140525
O     -3.16537020     0.03860085    -1.47983850
H     -2.60760434     0.75245474    -1.29964311
H     -4.14316487     0.27477320    -1.35441792
O      0.95242303    -0.87611713     3.53267102
H      1.76218108    -1.43158850     3.96541573
H      0.79134742    -1.56011517     2.80015588
O      1.37107396     1.73947735     2.93556611
H      1.31525129     0.92389978     3.01137873
H      1.58063277     2.15749023     3.67958524
O     -2.28413148    -1.89216991     2.62766148
H     -2.42182916    -2.26827288     1.69487653
H     -1.96013606    -1.01785740     2.59900924
O     -0.61582329    -3.41521118    -1.92558911
H      0.08159762    -3.92487783    -1.35297055
H     -0.90660670    -3.95447002    -2.60941500
O      0.75145412     2.57645402    -2.82010779
H      0.58426405     2.26831752    -3.63381513
H      0.97420993     3.48730663    -2.84756416
O      3.69333608     2.31817585     1.27219044
H      3.02854824     2.24524436     1.95080998
H      3.29217056     2.01525519     0.57191284
O      2.03217651    -0.42282003    -4.21253691
H      1.43168376    -0.47532564    -3.58324754
H      1.58961567    -0.47013941    -5.13268181
48
iceII n=16 T=50K rep=1
O      0.10502227    -0.41364982     0.12326910
H      0.27420485    -1.14999035     0.54195390
H     -0.61685043    -0.12824855     0.75228246
O     -0.36039272    -0.81429681    -2.47427403
H     -0.38820105    -1.77933963    -2.22307305
H     -0.29602531    -0.47843655    -1.55946867
O      0.88996072    -2.61913381     1.37267691
H      0.13810859    -3.25741146     1.50834499
H      1.62635820    -3.12381722     1.38943073
O      2.26569434     1.17625168    -0.91457209
H      1.89078903     1.67155397    -1.51980444
H      1.55587275     0.59738811    -0.48081686
O     -1.67501235     0.80541866     1.94801709
H     -1.57536757     1.18795779     2.67963853
H     -2.74523348     1.07249561     1.56079892
O     -1.35171863     2.15569731    -1.16636739
H     -0.89151846     2.45969170    -0.37140851
H     -0.81009906     2.54242894    -1.82657145
O     -2.58196743    -2.48911617     0.07951109
H     -2.94858747    -1.65247431    -0.47698557
H     -2.03220016    -2.64383766    -0.62336741
O      0.11399971     3.17661920     0.88326615
H      0.65383045     3.81091748     0.66861250
H      0.54023458     2.52194038     1.61335898
O     -3.23320199     0.02717528    -1.43566995
H     -2.39175801     0.76261478    -1.43029652
H     -4.01862744     0.33687723    -1.24058366
O      1.04573226    -1.06256630     3.58126657
H      1.90541352    -1.51924954     3.86846619
H      0.79883085    -1.58363615     2.79355086
O      1.45068779     1.87388319     3.06548918
H      1.31891228     0.95213316     2.87672655
H      1.64994884     1.92612766     3.88595427
O     -2.12365286    -2.15358715     2.53776830
H     -2.13844113    -2.48533840     1.85174609
H     -1.89453222    -1.15806491     2.63899818
O     -0.87256504    -3.64393641    -1.74471876
H      0.00025886    -4.01355532    -1.43745033
H     -0.88281987    -4.10805580    -2.52068391
O      0.80867731     2.60238507    -2.87283920
H      0.79572088     2.27214659    -3.66771058
H      1.03717380     3.60515684    -2.76333576
O      3.70325999     2.11086745     1.42166008
H      2.92640795     2.00669584     1.93223829
H      3.21540614     1.75827186     0.47472814
O      1.99759730    -0.39050949    -4.17390915
H      1.30971051    -0.71151925    -3.54320363
H      1.51600148    -0.75463413    -5.12017800
48
iceII n=16 T=50K rep=2
O      0.27256208    -0.49643816     0.25219020
H      0.27232910    -1.52229084     0.61360886
H     -0.29613185    -0.02750284     0.72759721
O     -0.30980506    -0.84986306    -2.57291185
H     -0.36929481    -1.80194456    -2.59263672
H     -0.04292250    -0.53650590    -1.74578611
O      0.64335368    -2.69421491     1.41814395
H     -0.11399882    -3.32124684     1.47175247
H      1.48972377    -3.18347066     1.25702122
O      2.16436540     1.11935228    -0.88043494
H      1.80928796     1.67976969    -1.61847101
H      1.33198510     0.62217674    -0.49694636
O     -1.79515993     0.80331597     1.88705914
H     -1.49351056     1.15610202     2.71595888
H     -2.67331933     1.09265396     1.66284235
O     -1.43772460     2.35099018    -1.42112843
H     -0.88100336     2.63658751    -0.47968859
H     -0.65672650     2.20408531    -1.83443929
O     -2.32175018    -2.45190990    -0.06862992
H     -2.71444125    -1.66801842    -0.43409112
H     -1.88231297    -2.90437349    -0.77453992
O      0.18455366     3.09971552     0.99369293
H      0.81494963     3.59122354     0.51419573
H      0.45248913     2.59838105     1.59513149
O     -3.43014259    -0.02106577    -1.39155936
H     -2.72362856     0.70535008    -1.22684401
H     -4.15507791     0.23959879    -1.29451498
O      1.08972884    -1.04058922     3.77649515
H      1.83233230    -1.31903123     3.99279706
H      0.66128663    -1.35465087     2.80593375
O      1.62722025     1.62290787     2.84594912
H      1.45078408     0.87361666     3.07347440
H      1.75494206     2.04914909     3.79822368
O     -2.29660010    -2.01338602     2.83044964
H     -2.38401585    -2.37342166     1.88716015
H     -2.03541144    -1.07002457     2.86501874
O     -0.55518203    -3.56270925    -2.03252333
H      0.28876956    -4.05204439    -1.65063155
H     -0.89733212    -4.34316855    -2.60017146
O      0.84964326     2.69196461    -2.66738926
H      0.73247997     2.47905859    -3.77304627
H      1.04725664     3.52083598    -2.73803533
O      3.70204070     2.31937266     1.23194857
H      3.14432976     2.21835030     2.00809516
H      3.36950475     1.83872027     0.44439376
O      1.99990049    -0.38810335    -4.20708141
H      1.33733515    -0.35162618    -3.41617665
H      1.74198175    -0.68745464    -5.03163010
48
iceII n=16 T=50K rep=3
O     -0.08553194    -0.20301756     0.07715916
H      0.19475214    -1.08517055     0.61731431
H     -0.60125100     0.12926032     0.74925123
O     -0.15326608    -0.83337267    -2.53140700
H     -0.31583614    -1.77477377    -2.47164227
H      0.01149404    -0.50542261    -1.64866887
O      0.57578332    -2.73634339     1.40269647
H     -0.03883668    -3.45032833     1.28045551
H      1.38365593    -3.06150414     1.35098347
O      2.21764063     1.17287581    -0.83022347
H      1.83488194     1.69783176    -1.52757994
H      1.45418574     0.88451305    -0.44388903
O     -1.74990139     0.68774961     1.99001362
H     -1.47107259     1.45147329     2.70277297
H     -2.67946842     1.09338064     1.70222982
O     -1.29430649     2.15755851    -1.11831447
H     -0.95198391     2.43230233    -0.34288338
H     -0.71662751     2.39890681    -1.74207511
O     -2.52998009    -2.47310504    -0.10435913
H     -2.83403595    -1.67701563    -0.48288287
H     -1.83743186    -2.91801675    -0.63897516
O      0.06163252     3.13462609     0.94922069
H      0.60084157     3.66459785     0.52296238
H      0.63748470     2.51722072     1.51120290
O     -3.08175587    -0.07943302    -1.32489225
H     -2.42983081     0.61589715    -1.26539641
H     -3.85929855     0.28335527    -1.15128298
O      1.16588064    -1.00704047     3.44163535
H      1.88654945    -1.46877612     3.79882173
H      0.88155936    -1.42539266     2.76360101
O      1.36218380     1.70205265     2.94484394
H      1.29211765     0.80614858     3.08659457
H      1.49740319     2.00500643     3.90191002
O     -2.10181529    -1.97602257     2.62048075
H     -2.30735335    -2.29492383     1.62613317
H     -2.05143992    -1.09476457     2.68182966
O     -0.65211529    -3.50492464    -1.91366895
H      0.16353052    -3.95125108    -1.50273967
H     -0.78122464    -4.05038371    -2.66496073
O      0.76538763     2.81586929    -2.79122161
H      0.65799502     2.57696421    -3.63344646
H      0.94669921     3.79642119    -2.82909177
O      3.83992034     2.23883678     1.33005491
H      3.14752810     2.00614675     2.00125808
H      3.42344375     1.84568347     0.52730824
O      1.98960822    -0.39911164    -4.17817452
H      1.26903839    -0.49097181    -3.46320217
H      1.58065530    -0.80519474    -4.89882403
48
iceII n=16 T=50K rep=4
O      0.17197430    -0.27053557     0.22440111
H      0.36343325    -1.12502730     0.70812772
H     -0.45445130     0.15597984     0.86187306
O     -0.16585569    -0.90972870    -2.47784440
H     -0.39609842    -1.79498797    -2.37714958
H     -0.11861806    -0.54801272    -1.57583952
O      0.66915103    -2.73763578     1.44282601
H      0.06525634    -3.54959838     1.22177310
H      1.55053421    -3.12644384     1.29660247
O      2.24355869     1.25302177    -0.70954693
H      1.67377161     1.75928515    -1.46305389
H      1.47915307     0.73156018    -0.38351007
O     -1.83864618     0.69547613     2.01865476
H     -1.58203297     1.20854528     2.71049669
H     -2.67182281     1.08726797     1.68584076
O     -1.39800479     2.29157474    -1.16643988
H     -0.95625055     2.59574696    -0.33379342
H     -0.72142836     2.44041844    -1.84615959
O     -2.63016475    -2.56781213    -0.04887337
H     -2.77122314    -1.66198310    -0.51226380
H     -1.84051301    -2.88062252    -0.62880224
O      0.00946738     3.19263763     0.79398307
H      0.77959252     3.62890284     0.46682721
H      0.46550591     2.58844765     1.53947638
O     -3.13029279    -0.08997777    -1.48267401
H     -2.56430678     0.61789701    -1.49767829
H     -4.04961401     0.23406802    -1.29271423
O      1.05560560    -0.92497595     3.56901420
H      1.82788501    -1.39956024     3.94050236
H      0.73782893    -1.53767016     2.82961545
O      1.41227448     1.67709761     2.97342273
H      1.15014103     0.70162961     3.08946645
H      1.53372035     2.00864106     3.87539674
O     -2.19962634    -1.96499538     2.60747762
H     -2.33410706    -2.33369453     1.78605122
H     -2.21320145    -1.06016862     2.58889784
O     -0.69035851    -3.34149692    -1.89797100
H      0.17501265    -3.74500145    -1.54268290
H     -0.95111976    -4.11000104    -2.50322068
O      0.81054029     2.59899681    -2.93936804
H      0.53821875     2.34231646    -3.80856711
H      1.03170934     3.56320948    -3.09671204
O      3.58401771     2.15524550     1.29371786
H      2.88421491     2.02844300     2.02092697
H      3.19220404     2.02356362     0.51564645
O      1.95598928    -0.33495175    -4.05722002
H      1.39065423    -0.43667002    -3.32309197
H      1.60355407    -0.68954202    -4.87170835
48
iceII n=16 T=50K rep=5
O      0.16596125    -0.49280777     0.06957125
H      0.21698521    -1.17577657     0.45609356
H     -0.53668685     0.20197896     0.50337857
O     -0.14326733    -0.99289037    -2.41769324
H     -0.31250142    -1.88336037    -2.48464750
H     -0.24827871    -0.82704289    -1.61997615
O      0.91050926    -2.69756360     1.37328317
H      0.17607240    -3.38499027     1.30734266
H      1.69174537    -3.15872949     1.26069928
O      2.37152959     1.20004916    -0.88985839
H      1.86866982     1.76492927    -1.58909036
H      1.48021783     0.54222520    -0.39542344
O     -1.75818168     0.86210417     2.14452430
H     -1.58517000     1.26003996     2.82762796
H     -2.59547518     1.11819997     1.80439186
O     -1.36024770     2.07423271    -1.25959856
H     -1.10867945     2.34936773    -0.55142201
H     -0.85673735     2.27735615    -1.81579002
O     -2.51415122    -2.47865478    -0.17954443
H     -2.72352310    -1.66375034    -0.65039859
H     -1.78762187    -2.88315694    -0.71207477
O      0.21762353     3.10731939     0.87420500
H      0.88930031     3.56067332     0.51095364
H      0.48330609     2.67223134     1.71214503
O     -3.07227452    -0.06188891    -1.22293353
H     -2.39668370     0.62394332    -1.37462815
H     -3.97330255     0.43725795    -1.19830884
O      1.01037890    -1.08126669     3.47437392
H      1.85354850    -1.37469186     3.79376637
H      0.65439260    -1.67265996     2.84194364
O      1.65052642     1.63933782     2.89061550
H      1.32847807     0.74538389     2.95739918
H      1.52376875     1.97604587     3.83129485
O     -2.19978816    -1.97172580     2.67972695
H     -2.34076665    -2.25733825     1.71280195
H     -2.04526976    -1.19210299     2.59345396
O     -0.58194807    -3.71516599    -1.91832598
H      0.08134531    -4.14501857    -1.51366821
H     -0.76073383    -4.00910570    -2.75315149
O      0.77795955     2.54177722    -2.71171921
H      0.87000176     2.16780282    -3.71053901
H      0.90883174     3.52560460    -2.88501475
O      3.78850835     2.09546611     1.37323604
H      3.01271880     1.90286295     2.08777919
H      3.42077782     1.97811853     0.52143020
O      2.05984225    -0.46638290    -4.22121849
H      1.42954348    -0.43204163    -3.64057726
H      1.67762012    -0.71112525    -5.07206625
48
iceII n=16 T=150K rep=0
O      0.15104359    -0.34512750     0.12979199
H      0.28989454    -1.07690572     0.56862332
H     -0.48673744     0.10603122     0.65180018
O     -0.27504342    -0.65129894    -2.44837777
H     -0.33294725    -1.84504295    -2.42562319
H     -0.14082900    -0.52593864    -1.53288083
O      0.76361282    -2.72983208     1.29789218
H      0.07071058    -3.35609131     1.71582611
H      1.55025194    -3.19218711     1.08430371
O      2.24741405     1.23996363    -0.93599953
H      1.66857515     1.79727780    -1.37295266
H      1.63969904     0.53630472    -0.49211944
O     -1.64348975     0.68748619     2.11723503
H     -1.68426926     1.19282741     2.82959024
H     -2.45229943     1.02835535     1.62022436
O     -1.47151806     2.04812219    -1.14894396
H     -1.21018060     2.43833751    -0.53327353
H     -0.66999715     2.18982897    -1.99916561
O     -2.53031255    -2.51329225    -0.10219101
H     -2.85659860    -1.76029181    -0.50449953
H     -1.98307720    -2.91899755    -0.63550950
O      0.16100196     3.16248748     0.97656028
H      0.73201182     3.82420649     0.55042171
H      0.51301815     2.77908167     1.65458654
O     -3.22867405    -0.26380796    -1.33177808
H     -2.58794271     0.45501944    -1.21219242
H     -4.13396301     0.23184946    -1.36525673
O      1.04739035    -0.94353993     3.79822378
H      1.94183474    -1.30858952     3.97173135
H      0.84754529    -1.29320604     2.86054585
O      1.43919512     1.69551947     3.01060920
H      1.30817579     0.80408436     2.95593224
H      1.55065394     2.04348028     3.92004187
O     -2.32094205    -1.92770217     2.67127604
H     -2.34609239    -2.26585887     1.67296211
H     -2.11514580    -1.05137329     2.60227117
O     -0.74912107    -3.48674912    -2.01522972
H      0.05345653    -3.96085598    -1.67174950
H     -0.88573519    -4.01437185    -2.77538967
O      0.88281321     2.66013873    -2.87523982
H      0.68077499     2.38995219    -3.66012207
H      1.14804763     3.51819507    -2.86158182
O      3.62551560     2.20334164     1.39840935
H      2.87231878     1.97041737     1.97514473
H      3.32375942     1.88899303     0.44485726
O      2.05404090    -0.47773152    -4.13790336
H      1.29322464    -0.54154435    -3.38169497
H      1.76071794    -0.68968294    -5.02063065
48
iceII n=16 T=150K rep=1
O      0.34882115    -0.41865904     0.29857004
H      0.43094041    -1.26260596     0.32620722
H     -0.62369158    -0.25158117     0.82728059
O     -0.17651167    -0.89112352    -2.47225663
H     -0.41067324    -1.87720496    -2.46894900
H     -0.06541733    -0.56233608    -1.69139880
O      0.65292970    -2.73910814     1.44578840
H      0.04865025    -3.47424243     1.22076025
H      1.55930238    -3.15867714     1.37074068
O      2.44150304     0.90398825    -0.82152627
H      1.82038256     1.65928549    -1.47994767
H      1.67256285     0.39399044    -0.55989262
O     -1.79287905     0.79805373     1.88574431
H     -1.78986097     1.41123335     2.69745604
H     -2.76327378     1.25541626     1.75513193
O     -1.61552862     2.28877966    -1.09914818
H     -0.92692533     2.64458439    -0.21254828
H     -0.84749226     2.27780496    -1.72438452
O     -2.57498795    -2.48005507    -0.07113878
H     -2.89297010    -1.54482068    -0.59657125
H     -1.94308787    -2.76713544    -0.67403263
O      0.18519437     3.34113098     0.76544662
H      0.90695152     3.80374244     0.44428308
H      0.55034614     2.66455229     1.41121807
O     -3.38049670     0.07679311    -1.41819184
H     -2.77354795     0.70155128    -1.34108522
H     -4.12693973     0.33148194    -0.95731465
O      0.89819502    -0.89533808     3.49918101
H      1.74917145    -1.29559217     3.95169845
H      0.74152346    -1.35180142     2.78944857
O      1.49336636     1.70569774     2.87656405
H      1.33211585     0.75016146     2.92163837
H      1.68055371     2.06581548     3.82884049
O     -2.15473994    -1.97419804     2.52136786
H     -2.54517933    -2.22639233     1.82954380
H     -2.15750707    -0.95940384     2.59062059
O     -0.60105349    -3.69452091    -1.81407330
H      0.07989407    -4.11988272    -1.67055079
H     -1.02445906    -4.16780512    -2.68343212
O      0.83626729     2.76616045    -2.82103101
H      0.65542826     2.30828565    -3.48503251
H      1.08006471     3.69847823    -3.00098099
O      3.45929728     2.18624093     1.33982290
H      2.95737278     2.21062985     2.04919421
H      3.16610772     1.93523732     0.39864223
O      1.87701064    -0.28238299    -4.17362731
H      1.24021869    -0.42322504    -3.52329270
H      1.64059649    -0.74081916    -4.84963296
48
iceII n=16 T=150K rep=2
O      0.09857815    -0.35297451     0.25894989
H      0.36465077    -1.25763931     0.68321037
H     -0.68035104    -0.09896847     0.82760751
O     -0.24464149    -0.76503941    -2.65512237
H     -0.35024870    -1.62375757    -2.58656716
H     -0.06093613    -0.31586165    -1.74766668
O      0.67501384    -2.75424672     1.41351460
H      0.02713847    -3.45502215     1.33914655
H      1.54524568    -3.11211235     1.16053500
O      2.35621208     1.23058193    -0.91226812
H      1.80971687     1.70780170    -1.60034109
H      1.70349581     0.70481356    -0.54438317
O     -1.78008798     0.56773887     2.13782142
H     -1.54817930     1.19495322     2.82505152
H     -2.65551162     1.08363803     1.73358156
O     -1.50121163     2.27577853    -1.32703378
H     -1.04913773     2.75957256    -0.54621703
H     -0.83980939     2.34897915    -2.02660342
O     -2.55732908    -2.47822618    -0.07571692
H     -2.69534764    -1.71557768    -0.60771983
H     -1.69345735    -2.83283778    -0.44028513
O      0.06718896     3.11516873     0.89306446
H      0.72969160     3.64479683     0.46443111
H      0.53386705     2.62661996     1.51961042
O     -3.20978592    -0.03961479    -1.33584771
H     -2.66476779     0.72980176    -1.33862431
H     -4.11130029     0.34229913    -1.16379745
O      0.93274767    -0.86047279     3.56779791
H      1.79757326    -1.20701364     4.05676967
H      0.86800895    -1.54173417     2.91715022
O      1.49441717     1.64805829     2.83678573
H      1.60067936     0.73215827     2.88343485
H      1.55573273     1.93802983     3.82114827
O     -2.23460959    -2.04524727     2.65357795
H     -2.23410743    -2.30835274     1.70289080
H     -2.11137300    -1.09057128     2.51185957
O     -0.71745356    -3.55059311    -2.00791829
H      0.12522253    -3.79760703    -1.79368298
H     -0.96021844    -4.10727019    -2.80704595
O      0.81646708     2.63275480    -2.96696072
H      0.70756019     2.35791211    -3.88722473
H      1.04879707     3.56347575    -3.04263491
O      3.67603513     2.27009428     1.22284538
H      3.10393155     2.17879113     1.92322132
H      3.22090497     1.95215237     0.43805823
O      2.02096426    -0.28393191    -4.22525371
H      1.37537438    -0.48599931    -3.51647669
H      1.51324882    -0.57349361    -4.95755995
48
iceII n=16 T=150K rep=3
O      0.13119983    -0.30192417     0.31572330
H      0.35722267    -1.08522469     0.63096524
H     -0.67474647     0.08448638     0.76301169
O     -0.29791217    -0.87381594    -2.61768605
H     -0.39986632    -1.94291158    -2.29021917
H     -0.18931774    -0.75821558    -1.44052185
O      0.77540265    -2.67861487     1.45582026
H      0.13517668    -3.60078795     1.37999096
H      1.59473776    -3.11676294     1.28428218
O      2.43427596     1.07044002    -0.97084524
H      1.89671329     1.64409912    -1.60354416
H      1.56985938     0.57258118    -0.55591472
O     -1.84067203     0.71546470     1.85940881
H     -1.66867087     1.19430523     2.60572396
H     -2.65386068     1.06802684     1.68706130
O     -1.35488766     2.21752020    -1.28145665
H     -1.14104298     2.44438441    -0.43061897
H     -0.63599316     2.17484862    -1.81405878
O     -2.42378458    -2.51294699     0.03012756
H     -2.70947379    -1.45898729    -0.52631543
H     -1.89435639    -3.01267616    -0.57896021
O      0.05543738     3.13015107     0.94537850
H      0.65954590     3.67041593     0.49563288
H      0.44186102     2.59792133     1.63764868
O     -3.08753093    -0.29816544    -1.39005653
H     -2.37606171     0.64463021    -1.02768336
H     -3.98239974     0.22051766    -1.10749130
O      1.00832550    -1.13540595     3.60916151
H      1.90254234    -1.54648487     3.79273239
H      0.79610693    -1.79355214     2.71800041
O      1.54828929     1.74511116     2.85961526
H      1.32818096     0.92349570     2.97666008
H      1.59851804     2.04422730     3.78193106
O     -2.41262796    -1.97123454     2.51677332
H     -2.50258638    -2.22924954     1.52860600
H     -2.18209232    -1.08697937     2.67522564
O     -0.73503645    -3.44402679    -1.91743040
H     -0.04549799    -3.84806152    -1.50170146
H     -0.75884969    -4.03088329    -2.65679962
O      0.79414037     2.56948911    -2.67963865
H      0.76297097     2.40101646    -3.59102812
H      0.91248253     3.54171718    -2.77110951
O      3.72079186     2.07162122     1.24995722
H      3.03000402     2.00095017     1.89407989
H      3.35075364     1.72131947     0.42017272
O      2.16038187    -0.21834299    -4.17142328
H      1.33367441    -0.45738784    -3.45257083
H      1.63989726    -0.65236623    -5.02527175
48
iceII n=16 T=150K rep=4
O      0.20414929    -0.15783541     0.23273995
H      0.34373586    -1.05994847     0.59773333
H     -0.35350096     0.19831678     0.78254936
O     -0.42609904    -0.93011210    -2.63865826
H     -0.46984094    -1.92140434    -2.60733638
H     -0.21644937    -0.61385083    -1.81654219
O      0.80232599    -2.74730405     1.45163093
H      0.11070788    -3.43852287     1.38265410
H      1.61828617    -3.16896503     1.29557763
O      2.14571567     1.19125615    -0.84262755
H      1.70805683     1.64979879    -1.57266259
H      1.44897989     0.54876676    -0.46175072
O     -1.74876843     0.67796415     2.04360208
H     -1.51702521     1.17277390     2.73861702
H     -2.60417526     1.26345385     1.76552717
O     -1.33384838     2.09823063    -1.02317691
H     -0.87028408     2.49988482    -0.22045953
H     -0.67098239     2.33209637    -1.72054799
O     -2.78345908    -2.40580133     0.02653585
H     -2.96020283    -1.51097599    -0.46876288
H     -2.09431316    -2.78993702    -0.51914990
O     -0.02266420     3.13184407     0.86910600
H      0.69117966     3.69987748     0.61429239
H      0.23453076     2.63380251     1.62241110
O     -3.28309761    -0.07338550    -1.26202936
H     -2.52075424     0.50694812    -1.20550895
H     -4.04024163     0.40725115    -1.12632473
O      0.81485547    -0.96217952     3.52171763
H      1.40367689    -1.33713705     4.12042924
H      0.84209879    -1.59647532     2.74024431
O      1.51483527     1.59943061     2.99925738
H      1.34852433     0.70169307     3.15820736
H      1.66842340     1.95914097     3.92700750
O     -2.31215576    -1.97815740     2.53431440
H     -2.44082737    -2.24328113     1.65592036
H     -2.12200085    -1.04880933     2.54476267
O     -0.53962179    -3.59414404    -1.85795174
H      0.29002437    -3.97617469    -1.64954619
H     -0.96853781    -4.05353954    -2.61205571
O      0.95508207     2.67620391    -2.86409320
H      0.80708181     2.32260425    -3.67422897
H      1.08982734     3.57737861    -2.93764291
O      3.73743082     2.33519060     1.36978973
H      2.97122495     2.00839496     1.95244965
H      3.28492322     1.94510864     0.46649943
O      2.08941441    -0.33146195    -4.15011311
H      1.39180229    -0.44104710    -3.56005488
H      1.75704094    -0.64903370    -5.03413378
48
iceII n=16 T=150K rep=5
O      0.23638141    -0.22508828     0.29848498
H      0.43776020    -1.21912012     0.48224519
H     -0.20740414     0.28349375     0.82712058
O     -0.17321188    -0.75146913    -2.49076927
H     -0.41378158    -1.73912935    -2.45693170
H      0.02618818    -0.57487770    -1.46655872
O      0.79686721    -2.73577624     1.63970526
H     -0.04227611    -3.45132862     1.59951965
H      1.48802494    -3.24403872     1.07045928
O      2.18467844     1.17167121    -0.70044568
H      1.75389127     1.84704951    -1.34752065
H      1.60008735     0.65842040    -0.45169666
O     -1.84404546     0.69791857     2.02845731
H     -1.53331434     1.27075439     2.75397855
H     -2.50546490     1.05703948     1.69119899
O     -1.42584895     2.52272683    -1.11822839
H     -0.95134653     2.47238684    -0.36361092
H     -0.60153541     2.45517191    -2.00206414
O     -2.65017299    -2.41888441    -0.06550383
H     -2.81325251    -1.49793199    -0.31312849
H     -2.01821123    -2.94335332    -0.70777361
O      0.01615504     3.44624694     0.86695959
H      0.59484883     3.77846827     0.49691660
H      0.59986612     2.68866122     1.60788335
O     -3.13116993    -0.12749896    -1.34846006
H     -2.75193066     0.54299429    -1.33188866
H     -4.10091554     0.37199466    -1.20638817
O      1.07136507    -1.06541245     3.46473222
H      1.93209569    -1.16044413     4.04311620
H      0.97482600    -1.62222658     2.92269775
O      1.45486559     1.98052769     2.87625358
H      1.31151392     0.80050212     3.05763970
H      1.71679540     1.97825490     3.93394416
O     -2.06930639    -2.05524308     2.71767911
H     -2.35775416    -2.33718587     1.63401587
H     -2.26714110    -1.06215708     2.48107030
O     -0.65168619    -3.53260381    -1.92196753
H      0.08173041    -3.88317465    -1.43855607
H     -0.84390203    -4.13148575    -2.68273607
O      0.87539942     2.47156518    -2.83862938
H      0.57747362     2.35472382    -3.65347826
H      0.95996759     3.58602651    -2.84202157
O      3.72629084     2.06695336     1.17483471
H      3.10662894     1.91778224     1.87381315
H      3.41176198     1.71529331     0.47789605
O      1.91750872    -0.39286716    -4.17713208
H      1.33355380    -0.61731497    -3.72031199
H      1.73212731    -0.82197381    -4.95610100
60
iceII n=20 T=50K rep=0
O     -0.07138850     0.00743033     0.14048637
H      0.09281702    -0.74773255     0.35094265
H     -0.75580404     0.46041050     0.72403010
O     -0.31635134    -0.57529763    -2.73753199
H     -0.41142623    -1.48822899    -2.64370841
H     -0.18889803    -0.14656090    -1.72050940
O      0.63778807    -2.48093311     1.38857276
H     -0.06952951    -3.18806638     1.33579526
H      1.44517620    -2.77662045     1.21493481
O      1.93840887     1.46281005    -0.86403264
H      1.82874283     2.00775338    -1.64363215
H      1.33867226     1.00975673    -0.62598103
O     -1.89684783     1.07789480     1.86700544
H     -1.68347889     1.57336682     2.51387396
H     -2.59037658     1.39451020     1.53377220
O     -1.37677744     2.52037110    -1.20762963
H     -1.10823681     2.84483171    -0.45305131
H     -0.80466220     2.70295221    -2.04313107
O     -2.54199243    -2.19123222    -0.14720376
H     -2.87928364    -1.21893154    -0.46937296
H     -1.93796990    -2.40682853    -0.86840952
O     -0.05300830     3.54402711     0.81055429
H      0.68276435     3.98692813     0.40983625
H      0.47173353     2.91250896     1.47332496
O     -2.91529785     0.34403728    -1.57525082
H     -2.60063895     1.22910831    -1.49887624
H     -4.02414209     0.67142347    -1.31788287
O      1.01205351    -0.59967354     3.56537972
H      1.96639841    -0.94100091     3.83176000
H      0.78108254    -1.11487704     2.84297966
O      1.45630195     2.08097222     2.92797297
H      1.19862912     1.06865109     2.96861372
H      1.46969521     2.36068714     3.66106046
O     -2.47281548    -1.66344543     2.62423198
H     -2.65402995    -1.84641681     1.66098468
H     -2.07097834    -0.74727218     2.49996197
O     -0.69810540    -3.10313410    -2.07039915
H      0.11544303    -3.53716177    -1.87052815
H     -1.11166871    -3.64389842    -2.62005893
O      0.75157247     3.16559551    -2.85393505
H      0.56904994     2.70101083    -3.71248901
H      0.84476570     4.00660546    -3.11435852
O      3.35372515     2.52838437     1.23861680
H      2.74719149     2.49997432     1.82775026
H      2.99659282     2.15423260     0.51156071
O      1.94691282    -0.00418666    -4.31804940
H      1.26277892    -0.03412399    -3.55359785
H      1.58134640    -0.43894120    -5.05820311
O      4.58501527     0.17853571    -1.48074787
H      5.13791604     0.99285238    -1.42778667
H      3.73777809     0.70074074    -1.43325383
O      2.96206257    -3.59985340     0.90468778
H      3.54283855    -3.20349048     0.36960221
H      3.48531873    -4.22119947     1.38162123
O     -1.20390654    -4.74725550     1.06250368
H     -1.86533595    -4.85376983     1.62982422
H     -1.54778206    -4.96993623     0.36802381
O     -4.02188549     2.47840885     1.17665224
H     -4.73719072     2.29836960     1.91700424
H     -4.53328548     2.14169638     0.51056760
60
iceII n=20 T=50K rep=1
O      0.16045391     0.08810821     0.08037037
H      0.46983091    -0.67473569     0.64047681
H     -0.45369263     0.48222882     0.44868494
O     -0.17058511    -0.37998656    -2.70783281
H     -0.29930138    -1.37000787    -2.59381124
H     -0.06112105    -0.16809576    -1.82946511
O      0.61133697    -2.43180305     1.25263907
H      0.02054538    -3.18253640     1.30013313
H      1.36070394    -2.79894222     1.07886157
O      2.04410214     1.45911412    -0.96622151
H      1.64323884     1.92805177    -1.74019802
H      1.37368648     0.91164203    -0.55810130
O     -1.90728071     1.09276351     1.96146813
H     -1.63569386     1.63643885     2.72793215
H     -2.77154898     1.43362933     1.66377841
O     -1.52428716     2.56048778    -1.11518522
H     -1.13984131     2.90551266    -0.42157876
H     -0.86124747     2.61118001    -1.92654181
O     -2.55527628    -2.21988506    -0.12500056
H     -2.90197235    -1.48451089    -0.55216977
H     -1.96074447    -2.63363181    -0.75792307
O     -0.02969602     3.55748500     0.81012590
H      0.65925378     4.08857779     0.34563128
H      0.36981102     3.05019143     1.55512874
O     -3.13873770     0.19734833    -1.49639759
H     -2.56910290     0.89637399    -1.50294881
H     -4.14095947     0.67081142    -1.25918707
O      0.76879040    -0.73281457     3.46374331
H      1.50916745    -0.87831459     3.93588375
H      0.74170041    -1.39439141     2.78009016
O      1.32587992     2.08900819     2.70928560
H      1.32566044     1.23606645     2.94319782
H      1.54047792     2.49655866     3.68657021
O     -2.48251269    -1.62217920     2.51082165
H     -2.54180822    -1.93771381     1.72933496
H     -2.32783343    -0.56677261     2.46776752
O     -0.75255746    -3.03163859    -2.02903315
H      0.06940571    -3.51627262    -1.63108943
H     -0.92997968    -3.71538645    -2.75884848
O      0.64815835     2.92063249    -3.06572838
H      0.44722630     2.64745501    -3.92086643
H      1.00632612     3.97799900    -3.08838286
O      3.63226445     2.56694504     1.04443199
H      2.92149035     2.32433987     1.72727915
H      3.22113251     2.08429890     0.15371669
O      1.58038582     0.02070107    -4.31551247
H      1.04994927    -0.33141235    -3.64419409
H      1.27496329    -0.40789911    -5.10564379
O      4.60502850     0.24887490    -1.51732984
H      5.17608296     0.87646450    -1.44738661
H      3.64837537     0.70704315    -1.45316331
O      2.96073394    -3.70685070     0.72617231
H      3.61824971    -3.06158673     0.65330797
H      3.32809544    -4.26471311     1.44509023
O     -1.20422765    -4.66761163     1.15846821
H     -1.91136853    -4.97936240     1.76533833
H     -1.42534696    -4.88542052     0.29200535
O     -4.35756888     2.61836580     1.18941179
H     -4.96174061     2.45783108     1.88947318
H     -4.63691108     2.25631303     0.48452701
60
iceII n=20 T=50K rep=2
O     -0.07057048     0.03421887    -0.01266187
H      0.28807341    -0.69298149     0.38267124
H     -0.58962303     0.53476178     0.63903694
O     -0.21527190    -0.40265510    -2.74027133
H     -0.43961442    -1.47313469    -2.51471551
H     -0.21914780    -0.20443361    -1.78268322
O      0.59255922    -2.40271927     1.49374649
H     -0.15391870    -3.07420993     1.39092563
H      1.19134613    -2.88513078     1.39932131
O      2.25727465     1.59287980    -0.82824042
H      1.84122046     1.98338773    -1.53122051
H      1.55686578     0.98635909    -0.48436648
O     -1.81562142     1.04340646     1.81634843
H     -1.59558324     1.51018085     2.61786388
H     -2.67180600     1.36207457     1.38692452
O     -1.57554115     2.51496526    -1.32485475
H     -1.10465408     2.80806388    -0.61222038
H     -0.98108507     2.84464061    -1.96991314
O     -2.79928817    -2.14237589    -0.25225445
H     -3.03670881    -1.23507391    -0.65955654
H     -2.07449859    -2.51243395    -0.86708156
O      0.01208982     3.66909719     0.83944743
H      0.64462774     3.92834606     0.51747476
H      0.54198469     3.10634537     1.64082495
O     -3.22348590     0.31235276    -1.57103711
H     -2.56761887     0.90910994    -1.64225620
H     -4.01950178     0.73266238    -1.47651784
O      1.07292586    -0.73633063     3.27490263
H      1.96160217    -1.17964353     3.95112860
H      0.82452979    -1.40523480     2.71898832
O      1.16190004     2.04784677     2.88347354
H      1.09326588     1.07913003     2.83800239
H      1.37538254     2.33363548     3.79384932
O     -2.40044233    -1.59248067     2.52995831
H     -2.35172904    -2.01464160     1.69071692
H     -2.18778370    -0.57685225     2.24303081
O     -1.03031296    -3.16813486    -2.17424985
H      0.02315400    -3.45441505    -1.81989964
H     -1.02976961    -3.73253202    -2.74616154
O      0.74268570     3.12129864    -2.94202845
H      0.53843391     2.74342449    -3.65175386
H      0.76314252     3.94218378    -2.92423831
O      3.65252543     2.57931818     1.07454846
H      3.00181779     2.37119795     2.00778025
H      3.18880571     2.16059426     0.59436458
O      1.86740061    -0.27826902    -4.33960264
H      1.07715713    -0.40000157    -3.68523788
H      1.32933719    -0.24742899    -5.13703955
O      4.54567703     0.19639981    -1.42506564
H      5.29505477     1.03316355    -1.44095394
H      3.70981086     0.63042082    -1.17935196
O      2.96856590    -3.74134191     0.84143071
H      3.67651842    -3.24203347     0.54243491
H      3.38505346    -4.29976135     1.35210338
O     -1.27322060    -4.78174646     1.05552477
H     -1.82062547    -4.86572694     1.70141764
H     -1.78772204    -4.98835794     0.14047557
O     -4.33040708     2.80378713     0.97645743
H     -4.65445944     2.44367363     1.95959848
H     -4.61320574     2.24315530     0.19194763
60
iceII n=20 T=50K rep=3
O     -0.04584011    -0.03024377     0.18053503
H      0.21226940    -0.88899101     0.50142624
H     -0.72441145     0.39716367     0.78774828
O     -0.33825662    -0.47610790    -2.76189912
H     -0.48834365    -1.45183306    -2.69406415
H     -0.11457752    -0.14777016    -1.75023122
O      0.56939802    -2.38749262     1.38832996
H     -0.08162868    -3.18106535     1.21773820
H      1.42539147    -2.73250257     1.13540563
O      2.02131504     1.62865616    -0.96125430
H      1.67716962     2.05145850    -1.64345307
H      1.35711663     1.05458397    -0.57497366
O     -1.80071331     1.05834608     1.80201211
H     -1.60405069     1.63041082     2.68891604
H     -2.60189038     1.48463949     1.52992091
O     -1.50510413     2.56824383    -1.30236321
H     -0.92121715     2.76740318    -0.50877775
H     -0.79606759     2.69085281    -1.93081648
O     -2.41591804    -1.97688478    -0.20914989
H     -2.89630848    -1.16976035    -0.53461753
H     -1.87666743    -2.29842497    -0.71520664
O      0.04763440     3.63255535     0.80170827
H      0.68305760     4.26019999     0.40815224
H      0.42597497     3.05000370     1.49788809
O     -3.30963610     0.39480687    -1.44695873
H     -2.68848720     1.11809401    -1.36189581
H     -4.08230526     0.68965035    -1.21870129
O      0.85570319    -0.64456384     3.45697225
H      1.60421827    -1.06961417     3.82358349
H      0.64224428    -1.25293144     2.73862736
O      1.19344667     2.07200262     2.94225787
H      1.02706029     1.14276558     3.06145293
H      1.33293064     2.34782061     3.70246477
O     -2.36913390    -1.67017131     2.42691692
H     -2.51544449    -1.86553050     1.57985577
H     -2.20732265    -0.72566020     2.34975112
O     -0.85356519    -3.18420281    -2.04820948
H      0.10933558    -3.66835400    -1.81025042
H     -1.01193831    -3.56976685    -2.88418857
O      0.65555006     3.04988636    -2.96324845
H      0.40565080     2.75504638    -3.89678685
H      0.92933649     3.97858998    -3.04167251
O      3.63478929     2.52854331     0.93136354
H      2.80107624     2.43300034     1.64791846
H      3.23005118     2.26471813     0.31949265
O      1.84076562     0.06017100    -4.24470778
H      1.02195089    -0.19982309    -3.73835298
H      1.55227271    -0.28055713    -5.17092366
O      4.68431919     0.21585563    -1.57040949
H      5.32002085     0.85305300    -1.44075876
H      3.73440339     0.57697125    -1.40928022
O      3.07630016    -3.64305761     0.83611405
H      3.69618437    -3.17829858     0.40755469
H      3.32317076    -4.10414126     1.47842266
O     -1.23470214    -4.56089125     1.19324726
H     -1.93597404    -4.67903026     1.70659105
H     -1.71060467    -4.73889559     0.39519491
O     -4.23295734     2.61842494     1.20180829
H     -4.84660856     2.27395203     1.87161998
H     -4.53863817     2.25906017     0.41273068
60
iceII n=20 T=50K rep=4
O      0.11258250     0.09365165     0.00214443
H      0.33227747    -0.74829628     0.35988169
H     -0.62781900     0.48970410     0.64668769
O     -0.27880532    -0.55172746    -2.67243425
H     -0.46616240    -1.52705271    -2.57415664
H     -0.29099020    -0.22703181    -1.82087175
O      0.55100958    -2.51702058     1.30904901
H     -0.10966404    -3.22766365     1.30881408
H      1.36464654    -2.85779854     1.15786765
O      2.02774986     1.77216408    -0.99082122
H      1.71285386     2.25933778    -1.68080289
H      1.47547574     1.11534255    -0.59225931
O     -1.94053621     0.94874243     1.93376822
H     -1.69128563     1.43619616     2.67767358
H     -2.69713954     1.31212604     1.63943799
O     -1.55115681     2.54023216    -1.14628591
H     -1.10446193     2.79346855    -0.28767213
H     -0.81712678     2.50515412    -1.80922216
O     -2.63511261    -2.27036759    -0.04774152
H     -2.89241571    -1.40432343    -0.54698970
H     -2.07165757    -2.63519228    -0.66289508
O      0.02336361     3.47438488     0.90540540
H      0.69110832     4.09041310     0.59539382
H      0.41248503     3.00017985     1.54513918
O     -3.15232898     0.38306338    -1.51221512
H     -2.71571493     1.10935656    -1.35578844
H     -4.20753234     0.76394700    -1.41956127
O      0.96999131    -0.56268118     3.45159462
H      1.73912637    -0.94450582     3.76090122
H      0.76468782    -1.10702049     2.79857410
O      1.32348021     1.93606682     2.82430601
H      1.12735297     1.07500244     2.89657409
H      1.49586928     2.28216476     3.62844240
O     -2.39839922    -1.60911836     2.46511754
H     -2.38519592    -1.86640906     1.60796435
H     -2.25089195    -0.64246307     2.37225606
O     -0.72267316    -3.24951294    -1.93927472
H      0.14859408    -3.52949020    -1.61756642
H     -0.90549771    -3.65765116    -2.68372247
O      0.77348546     2.95508881    -2.96704892
H      0.62359459     2.61876000    -3.79364844
H      0.95046180     3.91264444    -2.98550147
O      3.67199864     2.60412074     1.25572292
H      2.89397524     2.53232307     1.88036382
H      3.21770871     2.07741084     0.45939297
O      1.94432856    -0.20478207    -4.19714259
H      1.27019219    -0.34410421    -3.58462281
H      1.48480332    -0.33839924    -5.06211889
O      4.62826551     0.37087204    -1.39481549
H      5.23127558     1.00847028    -1.36279225
H      3.75785423     0.78760882    -1.32037602
O      2.86731720    -3.73528761     0.78350493
H      3.57368684    -3.20081201     0.44112630
H      3.28713102    -4.20003321     1.51615732
O     -1.16640398    -4.52967387     1.13776053
H     -1.89878215    -4.70868810     1.89980743
H     -1.57110931    -4.88269293     0.36362315
O     -4.29621594     2.47373796     1.16642220
H     -4.96510464     2.13030612     1.87854969
H     -4.72981112     2.25741440     0.29430164
60
iceII n=20 T=50K rep=5
O     -0.08221534    -0.11314286    -0.03870605
H      0.22235022    -1.06438040     0.43534590
H     -0.57560555     0.29046040     0.61269682
O     -0.33752779    -0.52350200    -2.67377210
H     -0.45138465    -1.52524548    -2.63594806
H     -0.25250317    -0.20944401    -1.95676099
O      0.71176494    -2.50203165     1.46547843
H     -0.03200959    -3.06779327     1.41684882
H      1.43112455    -3.01496899     1.43525750
O      2.11623557     1.57632976    -1.06492610
H      1.69861649     2.15061196    -1.73245249
H      1.39571691     1.01697262    -0.58837502
O     -1.83642407     0.89733789     1.90533378
H     -1.61173774     1.34733838     2.64077462
H     -2.68499377     1.32707812     1.58642084
O     -1.42238970     2.55311231    -1.24417819
H     -1.08189120     2.91435931    -0.59341330
H     -0.71446146     2.62990393    -2.10362275
O     -2.48160751    -2.03452101    -0.01991883
H     -2.83532534    -1.28376521    -0.49551852
H     -1.83146554    -2.34967679    -0.71267131
O      0.13821649     3.47662066     0.71866774
H      0.80270696     4.09173350     0.58270009
H      0.34594879     3.01797700     1.50703836
O     -3.20444858     0.26949914    -1.53351071
H     -2.67171777     0.97849736    -1.38095450
H     -4.19700502     0.55989662    -1.28160862
O      0.92344719    -0.59081350     3.43280505
H      1.74489322    -0.92803943     3.72711850
H      0.74524102    -1.02225035     2.82681623
O      1.41928591     2.01669817     2.90359635
H      1.27912718     1.01062526     3.10029253
H      1.52090290     2.34918435     3.75770097
O     -2.33010333    -1.59702332     2.61945195
H     -2.30093854    -1.77942132     1.59184837
H     -2.25625965    -0.44799373     2.60237598
O     -0.67330629    -3.12802807    -1.90381246
H     -0.03427886    -3.49112928    -1.58022283
H     -0.84610464    -3.69627747    -2.73674057
O      0.64357346     2.93930074    -2.93272170
H      0.50302987     2.70875053    -3.81437010
H      0.82235238     3.94836995    -3.28735315
O      3.53943477     2.52447234     1.07967059
H      2.94745167     2.37138033     1.83956123
H      3.17551149     2.18349857     0.27556907
O      1.88065415     0.08217103    -4.41052269
H      1.39129976    -0.09821784    -3.77263532
H      1.59803315    -0.34300721    -5.20480975
O      4.53014909     0.25616310    -1.60671745
H      5.08919171     0.88663427    -1.56827960
H      3.60498702     0.61278622    -1.31308835
O      2.97561998    -3.58476278     0.72142304
H      3.80740788    -3.16194956     0.45956617
H      3.43615235    -4.13244908     1.46161930
O     -1.30760987    -4.60401359     1.25725159
H     -1.96986452    -4.84505913     1.95712218
H     -1.66217724    -4.88774942     0.40981423
O     -4.21799288     2.57135412     1.06414754
H     -4.92604276     2.50641997     1.70525340
H     -4.59372112     2.07495895     0.29114984
60
iceII n=20 T=150K rep=0
O     -0.02768392    -0.09339590     0.10857305
H      0.15015675    -0.79087773     0.49161375
H     -0.78619937     0.25293650     0.79900504
O     -0.31206225    -0.50211238    -2.82662471
H     -0.44056383    -1.49204489    -2.45822276
H     -0.36810563    -0.21100164    -1.72632007
O      0.46510010    -2.48611302     1.41934123
H     -0.08735730    -3.24230261     1.26034736
H      1.34246839    -2.76210875     1.18166700
O      2.34081350     1.55354015    -0.78754350
H      1.77603528     2.22498689    -1.45970501
H      1.49705237     1.02634927    -0.36161097
O     -1.99100914     1.08635610     1.92300435
H     -1.83243061     1.59289150     2.73626622
H     -3.00089646     1.49830209     1.70134458
O     -1.76633704     2.64634649    -1.21329055
H     -1.12145991     2.86280141    -0.52066354
H     -1.03409940     2.62273387    -2.01304188
O     -2.58565902    -2.37528187    -0.06386538
H     -2.89236392    -1.38011822    -0.19571045
H     -1.93918780    -2.62523582    -0.55312603
O      0.05780489     3.27404324     0.76623567
H      0.74500414     4.00809471     0.29897658
H      0.48755090     3.05821172     1.42849837
O     -3.03799339     0.27447797    -1.54808096
H     -2.57443356     1.06003494    -1.48788117
H     -3.96070336     0.71610440    -1.14726254
O      0.89507861    -0.83659095     3.39142709
H      1.74112912    -0.95901809     3.72055354
H      0.79070286    -1.24478327     2.70864349
O      1.35918979     2.06406291     2.77651745
H      1.23846573     1.04854421     2.91400532
H      1.79381478     2.32262775     3.72076674
O     -2.15630963    -1.53837595     2.54730295
H     -2.31259879    -2.01000337     1.76570701
H     -2.16226850    -0.59332847     2.50674357
O     -0.52223832    -3.30889860    -1.91822060
H      0.20281775    -3.74490821    -1.48555331
H     -0.82893871    -3.95646869    -2.70933571
O      0.84909124     2.98668360    -3.04586186
H      0.36834118     2.77448492    -3.90182814
H      0.87288870     3.95282317    -2.92668247
O      3.43003925     2.51650892     1.31901006
H      2.74341565     2.51603977     1.91221775
H      3.20218143     2.20119913     0.41857725
O      1.85631100    -0.20198886    -4.19759476
H      1.13418870    -0.18597968    -3.58197156
H      1.37716617    -0.32901168    -5.00383945
O      4.37413147     0.18308838    -1.34873010
H      5.10594570     1.04020825    -1.53867784
H      3.58699808     0.80089400    -1.32106718
O      3.20413961    -3.70178029     0.92029305
H      3.79443833    -3.02364548     0.30749597
H      3.48770681    -4.09671363     1.55010804
O     -1.12477110    -4.43350991     1.08398326
H     -1.71635876    -4.65458158     1.73397785
H     -1.45155236    -4.91948381     0.33116146
O     -4.18666383     2.47637773     1.24671805
H     -5.00065661     2.20649783     1.88094404
H     -4.60422465     2.06107661     0.32469146
60
iceII n=20 T=150K rep=1
O      0.07800488    -0.06975569     0.02663099
H      0.13047943    -0.87069140     0.42022404
H     -0.58675021     0.35295249     0.63561811
O     -0.41755227    -0.44843347    -2.60785307
H     -0.52003656    -1.35163624    -2.57013947
H     -0.28208888    -0.15387791    -1.78679870
O      0.37705373    -2.53778560     1.31915804
H     -0.14666110    -3.29121905     1.21289899
H      1.33227295    -2.74396744     1.19251704
O      2.11988767     1.48946812    -0.78405154
H      1.65540509     2.05488340    -1.62467180
H      1.41964705     0.96543789    -0.44544127
O     -1.90022509     0.98966270     1.88016205
H     -1.49627197     1.46269816     2.70572785
H     -2.86272887     1.44878044     1.57989951
O     -1.55098289     2.46893593    -1.37907430
H     -1.13108906     2.77383261    -0.32457518
H     -0.73421102     2.75413147    -1.91850901
O     -2.70019103    -2.18925386    -0.12521450
H     -2.80297359    -1.40019187    -0.48375160
H     -2.10459868    -2.72009418    -0.81851408
O      0.15546268     3.47974202     0.80461176
H      0.77028269     4.01776300     0.47274823
H      0.50141981     2.93987000     1.53031712
O     -3.13580365     0.29341206    -1.28840194
H     -2.59587032     0.99571950    -1.49598125
H     -4.09319061     0.63311222    -1.14235028
O      0.94061832    -0.70996201     3.39087265
H      1.92933781    -1.11200309     3.73173519
H      0.72451631    -1.37110746     2.74172914
O      1.44605815     2.06990998     2.72244913
H      1.26478480     0.99236266     2.65336622
H      1.47138381     2.29844726     3.53128963
O     -2.27848528    -1.78127603     2.53353038
H     -2.32937165    -2.10417708     1.70514769
H     -2.08632054    -0.69832544     2.48122367
O     -0.69168465    -3.13967452    -1.93268330
H      0.12669500    -3.50982683    -1.70881840
H     -1.00515949    -3.81992279    -2.65579278
O      0.81448512     2.95677692    -2.96622360
H      0.46912679     2.58007956    -3.85534666
H      0.77911510     3.95506381    -3.00843546
O      3.49058489     2.46734291     1.05003909
H      2.71363768     2.41783349     1.76626957
H      2.90944131     2.24821851     0.15985624
O      1.80943907     0.00793739    -4.19840540
H      1.15136893    -0.17807363    -3.52765273
H      1.47784126    -0.38285422    -5.09635452
O      4.45502155     0.12164247    -1.39899175
H      5.03558153     0.93653521    -1.34389143
H      3.74831440     0.63878947    -1.14746588
O      3.10218127    -3.50441166     0.84117604
H      3.89536365    -3.12888632     0.49603112
H      3.54973820    -4.06985985     1.52944582
O     -1.14913525    -4.66551549     1.25434552
H     -1.70466718    -4.76501913     1.94099271
H     -1.53561756    -4.77345048     0.30246564
O     -4.13550009     2.52721914     1.27172336
H     -4.94605625     2.29485978     2.08543388
H     -4.70274553     2.02174831     0.35275100
60
iceII n=20 T=150K rep=2
O      0.06394946    -0.05049327     0.07398995
H      0.25728635    -0.81440618     0.38432509
H     -0.51226067     0.35748824     0.74555799
O     -0.30182293    -0.44985767    -2.66421820
H     -0.40063673    -1.37376993    -2.63950509
H     -0.35531345    -0.13202211    -1.67920282
O      0.71978351    -2.41245203     1.41407914
H      0.02243474    -3.14983572     1.31027374
H      1.48508240    -2.88605842     1.30768731
O      2.18801002     1.53068300    -0.93098322
H      1.61839085     1.99782988    -1.58064427
H      1.46552937     0.95886511    -0.51573594
O     -1.82146275     1.14984156     1.84046080
H     -1.55743756     1.51454532     2.59838501
H     -2.62484490     1.53143782     1.59197390
O     -1.61203225     2.64514957    -1.28880509
H     -1.14525712     2.90943318    -0.42310061
H     -0.87919574     2.72796166    -1.99568967
O     -2.78628278    -2.01068633    -0.18418937
H     -2.93530589    -1.25701028    -0.60279764
H     -2.04200455    -2.44302094    -0.84553544
O     -0.03188392     3.40860914     0.82418527
H      0.57473710     4.07796721     0.46124605
H      0.53340695     2.91729816     1.52862060
O     -3.19034336     0.17530852    -1.50120103
H     -2.52360829     0.92374702    -1.32398176
H     -4.04282510     0.68764418    -1.24848824
O      0.86257730    -0.60027093     3.47549013
H      1.73568507    -0.90326783     3.85554388
H      0.63874586    -1.01662152     2.81313234
O      1.33273508     1.97651989     2.91484244
H      1.16741305     1.06715556     3.03356970
H      1.41973471     2.34267628     3.81677482
O     -2.33407741    -1.59215573     2.58038925
H     -2.39689341    -1.84171008     1.70866048
H     -2.06843388    -0.60312206     2.46293886
O     -0.57404744    -3.22682421    -2.04487593
H      0.21585247    -3.58356629    -1.75359909
H     -0.82202824    -3.64719405    -2.78483794
O      0.78121095     2.98731105    -2.80768396
H      0.61637739     2.61122893    -3.72159576
H      0.85667887     3.91950075    -2.87614831
O      3.57164320     2.49153647     1.02389765
H      2.82865403     2.38786136     1.72051708
H      3.07435846     2.25171610     0.30324645
O      1.89055091     0.04483875    -4.19113529
H      1.30117585    -0.00362891    -3.49748443
H      1.46470810    -0.20022737    -4.98619606
O      4.56226038     0.17261754    -1.38161346
H      5.17798726     0.96783467    -1.42574535
H      3.67000604     0.63656996    -1.27633706
O      2.90399409    -3.54785001     0.82253306
H      3.55333851    -3.00381371     0.39795520
H      3.39272731    -4.12821673     1.49853943
O     -1.21425498    -4.65736306     1.18576844
H     -1.79397937    -4.80619810     1.74445786
H     -1.55795765    -4.83143349     0.26701929
O     -4.20374814     2.40890405     1.18590960
H     -4.85990548     2.28482222     1.84261767
H     -4.65993204     2.08534194     0.25287668
60
iceII n=20 T=150K rep=3
O      0.12548478     0.20552992     0.12880695
H      0.25637445    -0.61008370     0.50001186
H     -0.56775872     0.64278440     0.68476805
O     -0.30007539    -0.55473222    -2.61813909
H     -0.37651521    -1.49532248    -2.60224623
H     -0.21165677    -0.17814765    -1.70199445
O      0.63858380    -2.42799188     1.39789855
H      0.00151397    -3.22877749     1.31565082
H      1.48427964    -2.93078238     1.21168697
O      2.20012215     1.39667162    -1.10180202
H      1.74078167     2.00997433    -1.76417767
H      1.49174558     0.98633970    -0.60774124
O     -1.89550035     1.16440673     1.96473167
H     -1.55479575     1.59883996     2.68214578
H     -2.72426635     1.64127978     1.58883846
O     -1.47134585     2.52038626    -1.36485974
H     -1.01040450     2.92281952    -0.52027904
H     -0.91581918     2.79250896    -2.12566562
O     -2.66540540    -2.08406110    -0.14142148
H     -2.87059974    -1.21328301    -0.62133137
H     -2.03701017    -2.44362270    -0.74918752
O     -0.10998384     3.76150166     0.76281155
H      0.76339630     4.00183037     0.51958729
H      0.05978770     3.15254726     1.57328486
O     -3.35596981     0.23777955    -1.59304195
H     -2.64476329     0.98287320    -1.34153080
H     -4.19179318     0.75340737    -1.38328902
O      0.84303363    -0.55636117     3.50702274
H      1.60690878    -0.87455896     3.94246642
H      0.77740114    -1.23026021     2.76289304
O      1.39140371     2.02034330     2.87621233
H      1.21396004     1.01531916     2.94031268
H      1.50466508     2.30843543     3.70600580
O     -2.41253412    -1.51100718     2.45650232
H     -2.40007460    -1.87599542     1.59249370
H     -2.27918471    -0.57787623     2.30563118
O     -0.75187141    -3.12499182    -2.00830765
H      0.06681662    -3.65293212    -1.70405801
H     -1.04186946    -3.70411869    -2.78709586
O      0.70453777     3.02044037    -2.99572855
H      0.51633295     2.76447406    -3.91375123
H      0.85524436     4.00261435    -3.03619575
O      3.60856754     2.47076554     1.23644610
H      2.82578176     2.24650205     1.84887793
H      3.30167797     2.04801741     0.40635185
O      1.98555987    -0.00800330    -4.15651665
H      1.26323731    -0.13655964    -3.51643588
H      1.50451505    -0.23416424    -5.00000559
O      4.57601826     0.22132313    -1.55715043
H      5.07029088     0.96144732    -1.50581829
H      3.63220334     0.65227486    -1.39561338
O      2.77169593    -3.63016496     0.78573394
H      3.45173246    -3.17515225     0.54335958
H      3.08590468    -4.06586676     1.53768820
O     -1.19709011    -4.57383923     1.35284523
H     -1.87353950    -4.80549490     1.99214729
H     -1.55089819    -4.89243301     0.45557639
O     -4.24586494     2.48336448     1.09451900
H     -4.85810136     2.40677326     1.78077505
H     -4.61855757     2.23629823     0.40698626
60
iceII n=20 T=150K rep=4
O      0.03549283     0.05366512    -0.06440697
H      0.14479127    -0.81137938     0.37128141
H     -0.71328006     0.51569667     0.56625030
O     -0.29672126    -0.55828059    -2.76545015
H     -0.41303709    -1.56033216    -2.60878879
H     -0.29095973    -0.35557417    -1.73542300
O      0.39189823    -2.51518766     1.23884606
H      0.04971892    -3.36597363     1.33679520
H      1.34724863    -2.61526538     1.02659851
O      2.15584793     1.54050818    -1.12189808
H      1.64435044     2.03842589    -1.66163446
H      1.40664804     0.86339056    -0.65599601
O     -1.60424123     1.02921175     1.70881424
H     -1.61846579     1.44705172     2.64181008
H     -2.52991792     1.37196445     1.48987451
O     -1.37080531     2.41758118    -1.35853736
H     -0.88638402     2.68267128    -0.38066740
H     -0.57627605     2.53468707    -1.84530744
O     -2.64344570    -2.01572576    -0.27574107
H     -2.92996474    -1.16292069    -0.68353054
H     -1.87852038    -2.50251414    -0.72594852
O      0.06783579     3.42462390     0.79458490
H      0.81785346     4.07895932     0.20732803
H      0.44610221     2.94345426     1.48069719
O     -3.42808961     0.25095420    -1.47745314
H     -2.67792981     0.89591016    -1.25315492
H     -4.30223428     0.59787169    -1.37223093
O      0.90841765    -0.62638148     3.60201598
H      1.68216764    -1.15004519     3.81374629
H      0.59006089    -1.26735787     2.78141608
O      1.16561395     2.04788619     2.61004359
H      1.16291999     1.25054631     2.88709251
H      1.50948630     2.47284340     3.50353879
O     -2.35944658    -1.52435442     2.38455941
H     -2.44995839    -1.80079893     1.42346726
H     -2.23748170    -0.54334816     2.47617111
O     -0.57168875    -3.30903254    -2.06510479
H      0.13146238    -3.68900471    -1.51781008
H     -0.60991317    -3.87195060    -2.75504784
O      0.71985139     3.02761782    -2.95947723
H      0.58991331     2.65575892    -3.85079793
H      0.80136535     4.01895267    -2.94254183
O      3.76465448     2.60424534     1.13755186
H      3.23914816     2.44980160     1.70714296
H      3.41185195     2.17296365     0.39822800
O      2.08011369    -0.01720378    -4.35704512
H      1.21611806     0.04473308    -3.76275542
H      1.46032331    -0.26568120    -5.17929959
O      4.58640585     0.42066491    -1.50464148
H      5.07048789     1.12171898    -1.37177027
H      3.70046279     0.78192279    -1.14103596
O      2.90967870    -3.72939763     0.75763580
H      3.76555781    -2.95864309     0.47355804
H      3.58311764    -4.24306825     1.50697928
O     -1.27611031    -4.66761065     1.04759065
H     -1.95894822    -4.79662193     1.74954697
H     -1.66593439    -5.00868143     0.16104052
O     -4.24058648     2.53410310     1.10119137
H     -4.87458490     2.37665266     1.62013699
H     -4.57773341     2.04551694     0.42881631
60
iceII n=20 T=150K rep=5
O      0.07110647     0.08862423     0.00453477
H      0.23111848    -0.68615684     0.44771173
H     -0.57902288     0.55781208     0.66555192
O     -0.18441594    -0.43080853    -2.69482798
H     -0.40081416    -1.39803112    -2.56261185
H     -0.15106764    -0.16591967    -1.77466194
O      0.50326125    -2.33298610     1.47869753
H     -0.12637734    -3.02966406     1.49064556
H      1.33388560    -2.72638029     1.26240429
O      2.17486596     1.68026348    -1.01129614
H      1.76625641     2.26883152    -1.64234535
H      1.55789193     1.18935423    -0.62167543
O     -1.75424672     1.11133775     1.86107996
H     -1.66796850     1.63680611     2.53314285
H     -2.64749306     1.31902041     1.45103850
O     -1.63870037     2.51972266    -1.41624577
H     -1.14916281     2.73294135    -0.48699953
H     -0.96597375     2.58020540    -2.06204122
O     -2.70813572    -2.07479872    -0.28250871
H     -2.95678672    -1.21332957    -0.53083893
H     -2.08098771    -2.40814278    -0.78443497
O      0.04409247     3.55283747     0.81564459
H      0.68886989     4.11530805     0.54808201
H      0.42708213     3.01507421     1.60186025
O     -3.24752753     0.26521507    -1.39390549
H     -2.51917459     0.91655898    -1.36656677
H     -4.00510916     0.74407858    -1.15332033
O      0.85460882    -0.88057973     3.41575540
H      1.65842849    -1.17446154     3.79434975
H      0.78707038    -1.37108744     2.64088796
O      1.47290199     2.00239853     2.70189661
H      1.22860158     1.00286795     2.84447315
H      1.62714020     2.24510704     3.60724632
O     -2.33315503    -1.62997268     2.57639454
H     -2.46124757    -1.92571349     1.72593005
H     -2.26392228    -0.70638097     2.49499644
O     -0.70096615    -3.19947225    -1.97416752
H      0.05177016    -3.58846464    -1.65385754
H     -0.95751738    -3.73592764    -2.74724789
O      0.75353777     3.12141591    -2.90158297
H      0.67584108     2.70385301    -3.76245688
H      0.92888399     4.01739879    -2.97099062
O      3.69258824     2.31637978     1.08441610
H      2.98817047     2.23988864     1.76813895
H      3.16774076     2.16471052     0.30062477
O      2.06997500    -0.07876475    -4.22884021
H      1.31810173    -0.15409175    -3.61001002
H      1.54585039    -0.39523621    -5.06807470
O      4.53791641     0.28581210    -1.51349004
H      5.07998163     0.99760621    -1.49668488
H      3.71944181     0.56941744    -1.07274250
O      3.00380064    -3.62847691     0.86189262
H      3.78221034    -3.04934014     0.46434046
H      3.46722913    -4.11289063     1.53264696
O     -1.08986950    -4.62747473     1.14091049
H     -1.84394742    -4.56231210     1.85565203
H     -1.51686850    -4.90336279     0.34297477
O     -4.30806799     2.63783567     1.20926642
H     -4.74058841     2.40431509     2.04656305
H     -4.80366180     2.31253331     0.48103387
72
iceII n=24 T=50K rep=0
O      0.18060837     0.13716618     0.21620620
H      0.43657176    -0.77450985     0.68403226
H     -0.25988964     0.39756588     0.95693740
O     -0.19444110    -0.49472599    -2.42985615
H     -0.23797632    -1.39322563    -2.39208824
H     -0.02371397    -0.16898934    -1.53185987
O      0.70566475    -2.30365847     1.36998555
H      0.30204562    -3.03835747     1.62911296
H      1.59748678    -2.66861923     1.26999587
O      2.17055624     1.54633567    -0.69804657
H      1.81173938     2.25609715    -1.45232372
H      1.42571337     1.12537750    -0.40743102
O     -1.76010511     1.20086078     2.06021453
H     -1.59270211     1.64656034     2.89559834
H     -2.57036520     1.55305054     1.76261480
O     -1.39604872     2.65762065    -1.01626555
H     -0.91190261     2.99054246    -0.19721032
H     -0.63160278     2.75887384    -1.65225519
O     -2.36610938    -2.18616633     0.12203509
H     -2.72505425    -1.28394371    -0.18948832
H     -1.86316681    -2.46061177    -0.64181581
O      0.37224648     3.45762550     1.08571804
H      0.95826738     4.16030385     0.61800837
H      0.65580943     3.00602692     1.75994794
O     -3.01056604     0.33190063    -1.30802432
H     -2.50902658     1.06715216    -1.26895208
H     -3.85288634     0.54744479    -1.15405310
O      1.21142010    -0.66604379     3.82190641
H      1.87885795    -1.07449029     4.05225286
H      0.99357643    -1.20649374     3.00200644
O      1.65736676     2.04647056     2.98918420
H      1.44221186     0.98647637     3.15735957
H      1.67729729     2.32560231     4.00319564
O     -2.10039905    -1.63038579     2.73124646
H     -2.18893042    -1.83099213     1.75841448
H     -2.06161706    -0.62009430     2.64571684
O     -0.63162417    -3.23312445    -1.67900246
H      0.16551155    -3.63919527    -1.36189922
H     -0.87024737    -3.77734205    -2.57960860
O      0.89508064     3.01335877    -2.84936900
H      0.76894287     2.56882724    -3.75973845
H      0.98151244     3.92628530    -2.91402314
O      3.80100572     2.66430406     1.50809391
H      3.08075769     2.60965037     2.08035124
H      3.33145693     2.39029205     0.64917588
O      2.07632169     0.03326326    -4.09616651
H      1.35262244    -0.02874498    -3.31907657
H      1.70764882    -0.29979918    -4.86836495
O      4.71557611     0.26010791    -1.32036617
H      5.45681181     1.07533619    -1.27583206
H      4.00588584     0.68478615    -1.17999465
O      3.18893866    -3.54803216     1.03373859
H      3.85481404    -2.93552486     0.71130392
H      3.59559454    -3.98647110     1.74676338
O     -1.02472050    -4.53172186     1.39972148
H     -1.44292372    -4.70574554     2.05375965
H     -1.18737061    -4.97283441     0.57422278
O     -4.12556488     2.64797024     1.53455230
H     -4.95351947     2.42690562     2.17641532
H     -4.53937107     2.21655495     0.65425414
O      1.95642181    -4.64145097    -1.03506606
H      2.20948946    -4.22117701    -0.16831708
H      2.46840203    -4.48211235    -1.76437895
O     -1.30754500     2.85887938     4.26891269
H     -0.67503389     3.61309081     4.33445165
H     -1.97271267     3.27501647     4.41503551
O     -1.57861215     1.03866657    -4.47152801
H     -0.76681630     1.44800018    -4.72521128
H     -1.16664416     0.48182911    -3.70901218
O     -3.35861566    -1.34789485    -3.28323566
H     -3.30762155    -0.80693977    -2.50967376
H     -4.16751006    -0.88620923    -3.66122693
72
iceII n=24 T=50K rep=1
O      0.40109202     0.04946941     0.26193346
H      0.45477692    -0.77601968     0.71321908
H     -0.41683382     0.37648702     0.69615176
O     -0.16033709    -0.46549596    -2.46060748
H     -0.12919078    -1.34482339    -2.38446728
H     -0.01695847    -0.10085505    -1.61294942
O      0.76077831    -2.17872197     1.62124069
H      0.09343598    -2.98697715     1.51167760
H      1.58903057    -2.54360371     1.41479025
O      2.33947780     1.69976970    -0.74437469
H      1.83439904     2.14347164    -1.33722533
H      1.70637850     1.09274541    -0.34745381
O     -1.77465099     1.04455274     2.03503736
H     -1.63203974     1.62408867     2.79388002
H     -2.49121552     1.43606692     1.74989848
O     -1.31467986     2.53974712    -1.09603617
H     -0.89532308     2.82238446    -0.23158247
H     -0.62002842     2.84503071    -1.83984431
O     -2.57643704    -2.10256834    -0.07658945
H     -2.75406505    -1.22950415    -0.55089678
H     -1.84321494    -2.49697865    -0.73797176
O      0.11533366     3.55925141     1.00691744
H      0.74373555     4.12017060     0.69569465
H      0.57728313     3.04082566     1.76221463
O     -3.01816977     0.35669495    -1.18795205
H     -2.35683886     1.14919767    -1.06797866
H     -3.81495243     0.70171088    -0.98651177
O      0.94305311    -0.54217012     3.59161137
H      1.76126142    -0.96478166     4.11076338
H      0.97423936    -1.03438772     2.84816630
O      1.53655014     2.21011174     2.92045238
H      1.32815174     1.26351745     2.99109323
H      1.64951362     2.44037862     3.81789088
O     -1.99869269    -1.55722181     2.76502478
H     -2.06041189    -1.87728329     1.78015719
H     -1.80349715    -0.62043192     2.63902546
O     -0.57888757    -3.10978531    -1.78693570
H      0.17073197    -3.55744788    -1.47416672
H     -0.99279807    -3.79410553    -2.54714667
O      0.85226101     3.06889740    -2.75490197
H      0.75178670     2.75012295    -3.61208003
H      1.06079304     4.00315778    -2.78062068
O      3.79782380     2.64371474     1.45300552
H      3.05919051     2.39156396     2.02104726
H      3.34528021     2.30860607     0.65059237
O      2.02062367     0.09085434    -4.04033583
H      1.35771707    -0.09843368    -3.27791443
H      1.63267420    -0.23642165    -4.77561248
O      4.78689750     0.39665136    -1.37148620
H      5.44175973     1.18365522    -1.24369796
H      3.90725636     0.85098428    -1.20780732
O      3.10766288    -3.48009216     1.16046260
H      3.80486577    -2.95262380     0.79385421
H      3.62631538    -4.05032310     1.79952455
O     -1.01459051    -4.68413054     1.35618487
H     -1.67990063    -4.79852570     2.13796969
H     -1.33095912    -4.94599562     0.58437576
O     -4.04486270     2.44096717     1.28207577
H     -4.69275749     2.37586067     1.95234210
H     -4.38643724     2.28486584     0.49081864
O      1.65475558    -4.61624005    -1.04680995
H      2.13661209    -4.36530979    -0.20759217
H      2.35124327    -4.44477852    -1.71540114
O     -1.32997263     2.83593779     4.33751150
H     -0.75480277     3.58284111     4.27064867
H     -2.22563473     3.28270215     4.36329444
O     -1.44475706     1.06665322    -4.31470955
H     -0.68667940     1.57312157    -4.69775572
H     -0.99294316     0.56654383    -3.67543806
O     -3.30915643    -1.43970231    -3.41795134
H     -3.09964619    -0.84498746    -2.62854239
H     -4.14572262    -1.07481501    -3.64190321
72
iceII n=24 T=50K rep=2
O      0.01008909    -0.06160084     0.21214533
H      0.56142192    -0.80629128     0.66883470
H     -0.22505820     0.34504715     0.87304224
O     -0.11112548    -0.42769753    -2.42327488
H     -0.33369917    -1.40609733    -2.61511187
H      0.11915881    -0.36323508    -1.61864174
O      0.75711963    -2.39610904     1.63219221
H      0.27803583    -3.04550325     1.69214692
H      1.52821089    -2.68710138     1.34401115
O      2.44105109     1.64555811    -0.88861641
H      1.96351688     2.03515150    -1.55782671
H      1.51959459     0.95191235    -0.44563855
O     -1.61123280     1.08154980     2.20841014
H     -1.50674421     1.91980322     2.90915862
H     -2.58161360     1.49614531     1.81496337
O     -1.39832972     2.38852100    -1.12114477
H     -0.89557662     2.71212712    -0.15890393
H     -0.60587892     2.77309884    -1.77110373
O     -2.50253329    -2.13498852     0.07180293
H     -2.63896928    -1.39033328    -0.23169628
H     -1.90233204    -2.58549754    -0.53120183
O      0.17037303     3.54407797     1.14556852
H      0.93146275     4.22292246     0.82134891
H      0.38113478     3.02349777     1.79571677
O     -3.01654772     0.22026720    -1.33892668
H     -2.35759552     0.97006540    -1.27257143
H     -3.85894565     0.66093464    -1.16921208
O      1.20888704    -0.40841049     3.62455042
H      1.82120214    -0.93813332     3.93327590
H      0.82404876    -0.96985691     2.89294361
O      1.47658116     2.24814786     2.88642074
H      1.52673223     1.20203659     2.91376086
H      1.71062080     2.47088828     3.92661595
O     -2.20917914    -1.58928252     2.82469525
H     -2.35170157    -1.87940478     2.00542970
H     -2.01151572    -0.54067899     2.73171445
O     -0.58909925    -3.48072794    -1.68181443
H      0.21889743    -3.61225572    -1.33128817
H     -0.76749969    -3.67402736    -2.68596289
O      0.86772366     3.20382592    -2.67056639
H      0.94267672     2.70534025    -3.60537599
H      0.93608337     4.00277488    -2.64644336
O      3.70596105     2.56686635     1.28967157
H      3.15762594     2.47515802     1.90827983
H      3.30617068     2.22671012     0.67294491
O      2.01062802     0.08621073    -3.99132968
H      1.35989936    -0.05563489    -3.36822755
H      1.89024835    -0.25274011    -4.89661633
O      4.61219922     0.21897614    -1.52084012
H      5.17772590     0.89284140    -1.18691319
H      3.82913296     0.69273828    -1.11756942
O      3.07285883    -3.53225563     1.00344059
H      3.87344807    -2.86956228     0.68960191
H      3.48723449    -3.89834101     1.76515851
O     -0.93812622    -4.30755192     1.41681239
H     -1.44899650    -4.58301068     2.18597656
H     -1.23805713    -5.03614892     0.68581623
O     -3.99475154     2.70317647     1.32354437
H     -4.70449011     2.43317060     2.03511497
H     -4.42643751     2.31740526     0.59905651
O      1.67747114    -4.76463534    -1.03954580
H      2.14969249    -4.42900693    -0.18444585
H      2.53763092    -4.50089305    -1.70087487
O     -1.14768563     2.84814767     4.30043525
H     -0.69681229     3.59520462     4.22941428
H     -2.04354738     3.19301388     4.42188776
O     -1.66358913     0.94420904    -4.42148285
H     -0.95287161     1.44980956    -4.76346813
H     -1.24766993     0.59133886    -3.56303859
O     -3.47613968    -1.54484244    -3.50439456
H     -3.09707996    -0.91488307    -2.68431238
H     -4.08561061    -1.09560502    -3.64147877
72
iceII n=24 T=50K rep=3
O      0.16485254    -0.00728099     0.36046714
H      0.45707435    -0.84483868     0.56380529
H     -0.54955068     0.32486409     0.81133724
O      0.06882725    -0.33084574    -2.40843417
H     -0.15923255    -1.24245033    -2.30383647
H      0.12875574    -0.01111837    -1.44333554
O      0.87775554    -2.41615012     1.40566528
H      0.15318166    -2.98060313     1.49034231
H      1.56461855    -2.90281245     1.29773557
O      2.39320077     1.75329660    -0.81830577
H      1.83726981     2.10675286    -1.41938360
H      1.89226259     0.97754526    -0.34230687
O     -1.71129415     1.04314107     1.97535284
H     -1.42770922     1.65449691     2.76266016
H     -2.50330570     1.54984241     1.65696407
O     -1.29876305     2.48344280    -1.16272302
H     -0.92611022     2.91325656    -0.27063626
H     -0.62755718     2.67446605    -1.85455829
O     -2.37936798    -2.08261855     0.06661838
H     -2.71665634    -1.14034646    -0.32934517
H     -1.69013143    -2.52679676    -0.43471739
O      0.19926245     3.58795476     0.96272482
H      0.87501394     4.05571177     0.57276761
H      0.52379753     3.09145938     1.74412920
O     -3.07198144     0.53248871    -1.26575267
H     -2.45893678     1.18831086    -1.11076633
H     -3.94706717     0.90767158    -1.03045242
O      1.21042639    -0.54883652     3.62103315
H      1.94737895    -0.87474206     4.11669107
H      0.98914349    -1.11074231     2.95836843
O      1.52736966     1.98395274     2.86312844
H      1.41118857     0.98514330     3.00595844
H      1.63383921     2.39052923     3.81518221
O     -2.23543673    -1.50858262     2.76279767
H     -2.17741677    -1.98659469     1.83878132
H     -2.04461175    -0.55995179     2.58383184
O     -0.56752746    -3.21841465    -1.73320831
H      0.23945018    -3.58419249    -1.46378711
H     -0.80300848    -3.71486432    -2.40497501
O      0.86419573     3.12028790    -2.67253148
H      0.85237471     2.74310274    -3.62845160
H      0.97907427     4.07266078    -2.75090665
O      3.67833378     2.49979585     1.32940860
H      3.13123120     2.37379710     2.01449422
H      3.38831554     2.15872974     0.50762743
O      2.06103438     0.13311853    -4.15162371
H      1.34592641     0.08914952    -3.62537422
H      1.69536696    -0.06984972    -5.04530925
O      4.70473096     0.37194159    -1.14316305
H      5.37646467     1.12699283    -1.18471602
H      3.89624935     0.76582308    -0.99770514
O      3.24841650    -3.60548679     1.11810949
H      3.81005140    -3.00116190     0.77442591
H      3.59576842    -4.08813901     1.75280703
O     -0.87433308    -4.45384075     1.49788234
H     -1.71768493    -4.73551155     2.01512122
H     -1.33478866    -4.70859625     0.69698815
O     -3.87686205     2.68049013     1.40688953
H     -4.57489861     2.53633678     2.02210224
H     -4.38838535     2.27343226     0.57339047
O      1.75835719    -4.52386098    -1.03697613
H      2.26958594    -4.29454334    -0.29045071
H      2.42340733    -4.39062389    -1.85828598
O     -1.30317710     2.83442505     4.21408290
H     -0.73090758     3.56042878     4.20641296
H     -2.24063771     3.22477419     4.40086756
O     -1.50897957     1.17681648    -4.36495894
H     -0.87324959     1.60488994    -4.89261702
H     -1.09063513     0.55302731    -3.74932986
O     -3.34791027    -1.45080568    -3.32661923
H     -3.26025400    -1.02948973    -2.53021597
H     -4.07734773    -1.09093700    -3.59660092
72
iceII n=24 T=50K rep=4
O      0.22593949     0.05830809     0.28585840
H      0.57721849    -0.81511710     0.76613765
H     -0.44870637     0.44722134     0.91570371
O      0.03713703    -0.45970310    -2.41598742
H     -0.11514592    -1.38694464    -2.25429600
H      0.20596680    -0.12456765    -1.56227219
O      0.85103979    -2.27974680     1.55749531
H      0.18299273    -3.00940784     1.41215910
H      1.71082621    -2.69688850     1.39313834
O      2.25959810     1.51147244    -0.70300400
H      1.74424796     2.09205112    -1.29436119
H      1.68301012     0.95013793    -0.33864747
O     -1.70211322     1.15553118     2.22629957
H     -1.55098877     1.67577635     2.95065513
H     -2.55194351     1.59516864     1.85422453
O     -1.25530607     2.57755750    -1.05240488
H     -0.80698220     2.86494966    -0.29664262
H     -0.54145663     2.75489012    -1.80367603
O     -2.45105882    -2.14427301     0.03395876
H     -2.78787558    -1.24562988    -0.44235592
H     -1.70380157    -2.34656618    -0.62412142
O      0.12538317     3.52184465     1.06773799
H      0.88812555     3.99669847     0.64241439
H      0.42346722     3.09269822     1.82269996
O     -3.22315677     0.45978182    -1.32250130
H     -2.54389061     1.15734831    -1.09934836
H     -4.03051179     0.79854018    -1.14868709
O      1.14985731    -0.60128872     3.76143048
H      1.88418692    -1.06368948     4.11147943
H      0.88280544    -1.18999310     2.99467794
O      1.58828435     2.10180973     3.02319635
H      1.30275155     1.18152623     3.24581628
H      1.80037947     2.42327670     3.86279518
O     -2.07832589    -1.55560592     2.72868194
H     -2.16375425    -1.83307020     1.86783033
H     -1.90662395    -0.56773654     2.66330469
O     -0.58194727    -3.05429354    -1.90958415
H      0.15755553    -3.37166794    -1.56289025
H     -0.81005320    -3.66083550    -2.68536255
O      0.96729425     2.95055549    -2.70073786
H      0.81256065     2.87513851    -3.58677168
H      1.12974160     3.99784075    -2.60275295
O      3.81980619     2.57935470     1.42057746
H      3.08550131     2.53572987     2.08917895
H      3.36170267     2.24930671     0.57271808
O      2.07598721     0.12090603    -4.01563076
H      1.28867811    -0.03143911    -3.36562736
H      1.68512718    -0.22448336    -4.85353097
O      4.69016846     0.29137660    -1.22641469
H      5.34082237     1.14073850    -1.25443791
H      3.89128380     0.71552513    -1.00570484
O      3.22470355    -3.70136936     0.85344771
H      3.95758684    -3.19848240     0.51206251
H      3.58021878    -4.12247620     1.64238197
O     -0.99045567    -4.59226536     1.34139349
H     -1.59811822    -4.75416835     1.96244740
H     -1.41018226    -4.98326635     0.52785505
O     -3.96498581     2.47711238     1.42062777
H     -4.72337891     2.44683442     2.08297281
H     -4.32516626     2.21192738     0.58237437
O      1.77313676    -4.54942908    -1.05224344
H      1.98325937    -4.38602615    -0.14909227
H      2.51661004    -4.34791331    -1.59973219
O     -1.36906190     2.80893738     4.21188762
H     -0.68814466     3.57638325     4.15683491
H     -2.17387998     3.20792637     4.43148419
O     -1.43014923     1.08512602    -4.33504373
H     -0.79303894     1.59183431    -4.71580042
H     -0.95534270     0.55802895    -3.67144083
O     -3.32520411    -1.39891855    -3.29416718
H     -3.06119439    -0.79263715    -2.55029765
H     -4.08064756    -1.02718319    -3.76734929
72
iceII n=24 T=50K rep=5
O      0.38480741     0.01728396     0.23685267
H      0.42867842    -0.84792600     0.89752566
H     -0.60302878     0.33207411     0.88205160
O     -0.09579421    -0.49076724    -2.39761370
H     -0.36470373    -1.36917463    -2.41710822
H     -0.05229407    -0.09878679    -1.62913846
O      0.87235583    -2.37003836     1.55941137
H      0.06770061    -3.11047852     1.59494090
H      1.62352962    -2.77173147     1.39505143
O      2.24888470     1.64543321    -0.67386247
H      1.95883796     1.99116828    -1.35099016
H      1.58520833     1.18136245    -0.32382284
O     -1.66814593     1.19433514     2.20011775
H     -1.37451795     1.60103245     2.96444025
H     -2.65709409     1.52879291     1.73726624
O     -1.15079187     2.53827650    -1.09158173
H     -0.89339287     2.83911714    -0.16845600
H     -0.33440222     2.66958841    -1.54693241
O     -2.49098126    -2.10667801    -0.09237866
H     -2.76356975    -1.29653646    -0.34432744
H     -1.93354401    -2.43115812    -0.50995567
O      0.14235277     3.53770510     0.91284111
H      0.84425574     4.07945076     0.60160528
H      0.67623204     3.05299455     1.67335041
O     -3.09929596     0.49702597    -1.25213786
H     -2.54027400     1.12981625    -1.33751252
H     -4.07256473     0.83317547    -1.26232024
O      0.99853029    -0.63480118     3.67618161
H      1.68569955    -0.82421244     4.04740122
H      0.78845605    -1.16237350     2.94730044
O      1.53734782     2.13505183     3.16200128
H      1.35866701     1.04119851     3.28942122
H      1.53255583     2.32998245     4.01607757
O     -2.14457114    -1.68937721     2.71328447
H     -2.24468230    -1.95092955     1.86977138
H     -1.89655785    -0.74710824     2.78689873
O     -0.63847895    -3.23239333    -1.84047841
H      0.14291424    -3.67754955    -1.46318299
H     -0.73756372    -3.87302739    -2.44929879
O      0.83299741     3.08650711    -2.64622881
H      0.64796023     2.77926158    -3.60893102
H      0.90163531     4.04912627    -2.62939029
O      3.86824685     2.64132537     1.54534644
H      3.06757585     2.30960749     2.27718494
H      3.30673056     2.50111337     0.57814703
O      2.12763604     0.08354576    -4.12113948
H      1.39293810    -0.12393171    -3.51460090
H      1.84657920    -0.27138360    -4.76561089
O      4.77448426     0.42045776    -1.39786331
H      5.32344875     1.10158652    -1.20303272
H      3.89296631     0.81556550    -1.31123086
O      3.12123107    -3.57520769     1.16236923
H      4.14861749    -3.26763993     0.56926759
H      3.60133411    -3.96887682     1.78416297
O     -0.97196321    -4.44859537     1.50987609
H     -1.68683598    -4.61531457     2.01784004
H     -1.40929425    -4.97729295     0.65981832
O     -3.99754501     2.57816018     1.32656301
H     -4.78191204     2.44849248     1.97816343
H     -4.52341640     2.21572805     0.42773191
O      1.80265419    -4.37541901    -1.00476232
H      2.24199402    -4.14242588    -0.25978668
H      2.45812470    -4.36788473    -1.64465683
O     -1.35043620     2.83191874     4.23030346
H     -0.55772546     3.47079955     4.28764697
H     -2.14771870     3.29189423     4.37467993
O     -1.67831996     1.07781656    -4.55937851
H     -0.81993121     1.54673532    -4.77052010
H     -1.12367305     0.57365342    -3.73993824
O     -3.37878599    -1.27426830    -3.40563480
H     -3.06981284    -0.80876295    -2.52966092
H     -4.27975185    -1.03600348    -3.71159468
72
iceII n=24 T=150K rep=0
O      0.15631464    -0.01942275     0.38772602
H      0.41897833    -0.85488536     0.74281208
H     -0.40326359     0.43409135     0.88273432
O     -0.20235335    -0.44023626    -2.46737125
H     -0.32229276    -1.36323619    -2.45594775
H      0.10832452    -0.14671367    -1.51990731
O      0.99419437    -2.38351660     1.65002883
H      0.26784552    -3.11426429     1.51475412
H      1.75923739    -2.78357889     1.43064890
O      2.37403305     1.64291066    -0.58979348
H      1.80336205     2.14869756    -1.28881610
H      1.59397783     1.08597755    -0.18896753
O     -1.60442667     1.07595142     2.20497989
H     -1.39320205     1.71699375     2.95886119
H     -2.39265751     1.43898261     1.71456522
O     -1.33008030     2.63592367    -1.05833568
H     -0.97243710     2.90342801    -0.32750575
H     -0.69419693     2.79345515    -1.79767904
O     -2.40884445    -2.23051968     0.16102521
H     -2.58305167    -1.35359196    -0.24169870
H     -1.80937149    -2.61105789    -0.47174245
O      0.19768107     3.64243329     1.16767464
H      1.02197698     4.21962685     0.87822150
H      0.73082669     3.17624198     1.89139872
O     -2.98955648     0.33747168    -1.16830861
H     -2.38715114     1.08474396    -1.14738844
H     -3.79940551     0.72479375    -1.03017137
O      1.04772440    -0.66492521     3.62217947
H      1.95662073    -1.07008197     3.89819864
H      0.70059639    -1.18727133     2.90804714
O      1.53092317     2.11845298     2.96268408
H      1.40705206     1.13757216     3.11465086
H      1.62981980     2.37339175     3.93751721
O     -2.19474444    -1.54499450     2.71911745
H     -2.28655038    -1.79224948     1.86818817
H     -2.01402811    -0.49853084     2.71760658
O     -0.54433813    -3.15236634    -1.77912777
H      0.33992899    -3.56816024    -1.43209743
H     -0.64278074    -3.77086872    -2.56183709
O      0.84822436     2.87426771    -2.64828408
H      0.74026917     2.62058002    -3.49519591
H      1.10585097     3.88832939    -2.75870592
O      3.76641489     2.61431584     1.34623044
H      3.13636421     2.42089465     1.96682332
H      3.36025062     2.13065142     0.59971558
O      2.19501678     0.08844158    -4.03095974
H      1.53396045    -0.04137992    -3.46296801
H      1.87293600    -0.22033522    -4.99590330
O      4.77786717     0.44569281    -1.41866545
H      5.38159840     1.05775424    -1.42071558
H      3.99333413     0.85246160    -1.15395692
O      3.23006228    -3.62083313     0.96461231
H      3.90804850    -3.16544989     0.67938186
H      3.72041284    -4.10497505     1.63348627
O     -0.92193752    -4.47141235     1.26276961
H     -1.61865331    -4.61358177     2.00774426
H     -1.30039659    -4.73332854     0.52316494
O     -4.02783993     2.68510013     1.33428655
H     -4.56975023     2.44408391     2.15146148
H     -4.47920965     2.34870964     0.68340044
O      1.71357583    -4.45652973    -1.00341409
H      2.18643737    -4.33735783    -0.23621977
H      2.29407102    -4.25940388    -1.73473078
O     -1.29798586     2.93704643     4.26735904
H     -0.80710221     3.75337697     4.20223421
H     -2.24359539     3.27857584     4.36963588
O     -1.46000049     1.03203675    -4.47207951
H     -0.65412626     1.61574588    -4.84621050
H     -1.01401999     0.61013999    -3.71175590
O     -3.40496058    -1.39375207    -3.42371448
H     -3.18434685    -1.10291870    -2.58050219
H     -4.14077113    -1.00236554    -3.71184108
72
iceII n=24 T=150K rep=1
O      0.24030336     0.09909061     0.31929299
H      0.42889953    -0.72774466     0.79188201
H     -0.46876336     0.53147700     0.84545304
O      0.02888309    -0.54067911    -2.35727741
H     -0.09565563    -1.52313912    -2.25428393
H      0.11445596    -0.11737706    -1.50831962
O      0.75349171    -2.25788783     1.58962193
H      0.11439740    -2.97595734     1.52168503
H      1.58448420    -2.63787938     1.43896898
O      2.29710123     1.46029190    -0.74377416
H      1.82768296     2.03316560    -1.47242181
H      1.55563563     0.93578588    -0.42256868
O     -1.72735740     1.13095710     2.03511346
H     -1.46907748     1.58143062     2.89207695
H     -2.52849956     1.50753727     1.69304841
O     -1.40675843     2.58556090    -0.99785170
H     -0.91069572     2.88936887    -0.10816614
H     -0.64151464     2.68809274    -1.73135160
O     -2.39939516    -2.05511137    -0.13934132
H     -2.61304502    -1.18760037    -0.44240058
H     -1.78967784    -2.58685476    -0.60963243
O      0.22346567     3.68775405     0.96494099
H      0.92470133     4.26013576     0.50930236
H      0.47636802     3.22417001     1.60857181
O     -3.09812685     0.25175239    -1.41345454
H     -2.51291713     0.97842075    -1.29913667
H     -3.97193939     0.64078824    -1.25358474
O      1.14881080    -0.74998147     3.64535933
H      1.87671848    -1.09125451     3.95511111
H      0.77047164    -1.18481081     2.96719623
O      1.59997594     2.01147451     2.95503507
H      1.31212419     1.08159055     3.00369864
H      1.69734318     2.37596217     3.74480991
O     -2.17609796    -1.63272288     2.52227232
H     -2.09790872    -1.72348687     1.63277682
H     -2.08656430    -0.71918392     2.60723812
O     -0.46940459    -3.06880647    -1.76170945
H      0.23223534    -3.51589303    -1.34544768
H     -0.56865259    -3.67174563    -2.55542595
O      0.77526449     3.03207107    -2.64526469
H      0.56840743     2.68307235    -3.52874558
H      0.96081187     3.94029946    -2.75559142
O      3.94054904     2.51092490     1.46641618
H      3.28440500     2.37930955     2.08819005
H      3.55125551     2.32499767     0.54961447
O      2.07984184     0.12679379    -3.96872569
H      1.40145782    -0.06430200    -3.36808751
H      1.61695482    -0.23481715    -4.83358447
O      4.82744869     0.35011876    -1.26060567
H      5.34061019     1.20441552    -1.17674187
H      3.86587453     0.72331560    -1.05176319
O      3.16067532    -3.66062773     1.18023449
H      3.95327299    -3.02317749     0.86971141
H      3.75841638    -4.15367256     1.77760876
O     -0.92949412    -4.64638154     1.47846885
H     -1.62562325    -4.95682154     1.97908666
H     -1.13000875    -4.88530477     0.63517386
O     -4.06376661     2.61013449     1.38441095
H     -4.68637889     2.51301825     1.98517647
H     -4.40067554     2.31632149     0.56927210
O      1.74935830    -4.59663868    -1.12897001
H      2.14641277    -4.21374825    -0.34554022
H      2.45209602    -4.55066305    -1.71628759
O     -1.42519643     2.91444595     4.14112792
H     -0.75058396     3.63842406     4.22633167
H     -2.22381580     3.32230766     4.35937425
O     -1.68699541     1.07803674    -4.39566487
H     -0.98269744     1.59507626    -4.77248973
H     -1.27199066     0.47762396    -3.69036662
O     -3.42188878    -1.35975253    -3.33853395
H     -3.25251161    -0.91975536    -2.55199611
H     -4.24462606    -1.03526682    -3.61160543
72
iceII n=24 T=150K rep=2
O      0.10518292     0.13195654     0.24642051
H      0.32055525    -0.70288699     0.65360024
H     -0.49139732     0.54148066     0.95203590
O     -0.07960323    -0.40232190    -2.54522736
H     -0.32220339    -1.36123826    -2.29055192
H      0.03008342    -0.07327940    -1.58150340
O      0.90908169    -2.45362984     1.50216629
H      0.23558083    -3.27555744     1.51159036
H      1.75822582    -2.87312025     1.24561797
O      2.14769389     1.73805303    -0.72006529
H      1.72690424     2.11980175    -1.40434669
H      1.53692563     1.12426555    -0.23969056
O     -1.60831278     1.20031152     2.08885146
H     -1.35883050     1.87691583     2.84954274
H     -2.39812696     1.45153321     1.77236638
O     -1.51495052     2.69026062    -1.01218743
H     -0.90460469     2.95494945    -0.23937277
H     -0.69286549     2.72106814    -1.64922075
O     -2.27737561    -2.16968324     0.10740099
H     -2.75606157    -1.31137238    -0.25248980
H     -1.61099536    -2.37748445    -0.56557902
O      0.31484367     3.71182032     1.33393211
H      0.69776841     4.17575693     0.71106408
H      0.70112079     3.17834046     1.83581110
O     -3.11271976     0.32142698    -1.20511760
H     -2.54257820     1.08808076    -1.35541371
H     -4.02081602     0.78404417    -1.00967028
O      1.12037537    -0.55919230     3.63562335
H      2.03094376    -0.92436824     3.87792441
H      0.90636320    -1.27394372     2.85121888
O      1.45308769     2.15943313     3.02630933
H      1.23710390     1.24282129     3.08728988
H      1.57899202     2.47337621     3.93965867
O     -2.14939104    -1.67884617     2.90204352
H     -2.24517491    -1.81164012     1.95837614
H     -2.06489003    -0.60356489     2.72430283
O     -0.46267671    -3.10940914    -1.63006249
H      0.34280074    -3.47455094    -1.27053894
H     -0.61543283    -3.66069455    -2.49838852
O      0.99134203     2.98990287    -2.85794051
H      0.75297239     2.71179564    -3.66331906
H      1.18889349     4.01866533    -2.92852283
O      3.71509252     2.67507455     1.38604721
H      2.98170426     2.50002686     2.03622229
H      3.24014161     2.33802306     0.53731379
O      2.21119588    -0.00526599    -4.05862695
H      1.57457603    -0.20457935    -3.28929915
H      1.79802518    -0.27906598    -4.64082959
O      4.65915839     0.34223219    -1.17898264
H      5.52447651     1.00733365    -1.22735535
H      3.90805423     0.63123837    -1.09028747
O      3.08267333    -3.55587601     1.20770246
H      3.72821618    -2.96307287     0.68107847
H      3.62613538    -3.96826483     1.84177376
O     -1.05205846    -4.51571602     1.44060380
H     -1.66749036    -4.74189932     2.07832572
H     -1.44695716    -4.75678652     0.63795096
O     -3.94311730     2.49466897     1.30729371
H     -4.61967452     2.50372419     2.06201472
H     -4.30727086     2.12547295     0.54820274
O      1.78136285    -4.59578375    -1.20080140
H      2.15667872    -4.27786087    -0.48759542
H      2.37186086    -4.45409762    -1.80687775
O     -1.38102749     2.96398142     4.25055232
H     -0.77921587     3.72675709     4.21406429
H     -2.21699691     3.41469159     4.37882706
O     -1.47204998     1.15938880    -4.31184627
H     -0.85708469     1.82542942    -4.79456088
H     -1.01316974     0.64301695    -3.78465079
O     -3.51937382    -1.50359974    -3.37555487
H     -3.09745835    -0.86089974    -2.73963469
H     -4.20271495    -1.05146723    -3.79202372
72
iceII n=24 T=150K rep=3
O      0.15497867     0.08280482     0.34588940
H      0.38721160    -0.67977263     0.61308522
H     -0.53226233     0.49470154     0.78107824
O     -0.13120748    -0.20600539    -2.43629703
H     -0.19894385    -1.38906457    -2.49381637
H     -0.01214139    -0.08373615    -1.57233218
O      0.49550525    -2.41203236     1.44726542
H     -0.11312784    -3.17370751     1.50329621
H      1.32171785    -2.83356534     1.46280881
O      2.28500340     1.45496423    -0.79390661
H      1.95476295     1.93436421    -1.42673874
H      1.58044616     1.00574547    -0.41053917
O     -1.65418652     0.99099239     2.01731126
H     -1.41248638     1.57732673     2.59336107
H     -2.47401536     1.33306506     1.64065107
O     -1.39665200     2.58777352    -1.25377155
H     -0.97997537     2.94274264    -0.40126423
H     -0.65933709     2.72688766    -1.79978211
O     -2.45783949    -2.21856317     0.16945774
H     -2.56069330    -1.32594416    -0.55965980
H     -1.75483282    -2.69387638    -0.44161135
O      0.15644821     3.54221353     1.07590117
H      0.82250025     4.12412638     0.74106745
H      0.49501833     3.03066546     1.81472843
O     -2.92713791     0.50015208    -1.28499150
H     -2.32006778     1.26025701    -1.25968090
H     -3.72891117     0.65021907    -1.16910163
O      1.05733607    -0.65848986     3.64944067
H      1.82515185    -1.14424025     4.04987180
H      0.96226743    -1.36248898     2.81179803
O      1.29647449     2.20652402     2.85706040
H      1.27075719     1.35114873     3.07402726
H      1.43558497     2.55667134     3.88674492
O     -2.29056421    -1.48842883     2.82715152
H     -2.27038527    -1.85488829     2.05499540
H     -2.11548404    -0.65937447     2.87935634
O     -0.74478502    -3.02600836    -1.72707664
H      0.16476875    -3.37539113    -1.32236222
H     -0.88241295    -3.64224008    -2.49225690
O      0.98221289     3.05334074    -2.83128093
H      0.88713389     2.65389434    -3.80390357
H      1.22736524     4.02188842    -2.86155479
O      3.71722272     2.49551203     1.47638708
H      2.97453817     2.36190494     2.14107325
H      3.41084683     2.24814674     0.76840548
O      2.00816426     0.06592074    -4.04065350
H      1.24784026    -0.00345866    -3.53150813
H      1.61627542    -0.25092461    -4.97093975
O      4.67954008     0.31975392    -1.25203023
H      5.35272763     1.16406321    -1.13596841
H      3.94703397     0.85177582    -1.04525468
O      3.22788603    -3.48202582     1.03887911
H      4.00275542    -3.10752753     0.75217580
H      3.76863109    -4.00932692     1.80931237
O     -0.99283561    -4.57602555     1.45939711
H     -1.59222266    -4.64047391     1.99161848
H     -1.46368707    -4.89047305     0.52030420
O     -3.99409188     2.50332366     1.31625712
H     -4.83689651     2.26094459     2.07221715
H     -4.45402902     2.28436669     0.65804597
O      1.81468441    -4.68650056    -0.93968424
H      2.29504185    -4.32915845    -0.27561994
H      2.58928914    -4.42105960    -1.64111681
O     -1.33070151     3.07022427     4.39882445
H     -0.53526732     3.51515625     4.41973335
H     -2.38911180     3.26506214     4.58619087
O     -1.43385826     1.12702062    -4.44605063
H     -0.78379868     1.70627228    -4.76535593
H     -1.03687918     0.66899040    -3.78655159
O     -3.62492212    -1.44740265    -3.47012077
H     -3.12938486    -0.72815466    -2.88266287
H     -4.34564204    -1.02115468    -3.82698409
72
iceII n=24 T=150K rep=4
O      0.02073004     0.00842067     0.26054854
H      0.37025409    -0.83540939     0.63634182
H     -0.45508412     0.39042951     0.93603871
O     -0.14692579    -0.48368529    -2.27917580
H     -0.36191173    -1.33295193    -2.31112899
H     -0.16987670    -0.24035689    -1.22626357
O      0.83044593    -2.41552568     1.53482801
H      0.32767979    -2.98848688     1.27178135
H      1.72579048    -2.50501423     1.41343133
O      2.28021360     1.61109219    -0.70405593
H      1.86217490     2.13908166    -1.28381582
H      1.53912215     1.05566985    -0.26120684
O     -1.75428680     1.15768435     2.08209768
H     -1.53832027     1.76217760     2.86052902
H     -2.63353830     1.35824066     1.72081106
O     -1.36120607     2.45361857    -1.01864642
H     -1.04046220     2.81798581    -0.28571366
H     -0.66994332     2.56101299    -1.72469612
O     -2.48180318    -2.04723752     0.07670693
H     -2.73425838    -1.21197620    -0.25066234
H     -1.83309298    -2.41904259    -0.54753674
O      0.18514492     3.59836261     0.99476518
H      0.91577324     4.05719796     0.62836507
H      0.66532115     3.04915161     1.50954743
O     -3.03641716     0.25090703    -1.10602009
H     -2.49075855     1.11013842    -1.17760018
H     -3.76619311     0.62083050    -0.97479214
O      1.17252605    -0.71434406     3.76223231
H      2.09987093    -1.03739001     4.11623586
H      0.94429979    -1.28814864     3.00932290
O      1.75745490     1.97230124     3.14500884
H      1.61668149     1.15698051     3.07936751
H      1.73602397     2.40637732     3.99632917
O     -2.16351154    -1.53677263     2.67866869
H     -2.36979712    -1.90995123     1.81609833
H     -2.01124729    -0.60929123     2.63239930
O     -0.63205876    -3.07289697    -1.81447428
H      0.18128101    -3.52774957    -1.56122134
H     -0.91283371    -3.58152250    -2.74292861
O      0.89153720     3.14605801    -2.77427589
H      0.74334369     2.82347591    -3.57847244
H      0.99803145     4.14582252    -2.69493154
O      3.88433191     2.57931704     1.31541681
H      3.23024417     2.43748805     2.01575364
H      3.28130905     2.30820542     0.57185674
O      2.14240386     0.07283114    -4.20150205
H      1.54403598    -0.12553356    -3.30815136
H      1.68012686    -0.23028165    -4.92601653
O      4.82871765     0.27126617    -1.38396082
H      5.39615764     0.92932657    -1.17157748
H      4.08846574     0.69381232    -1.15396561
O      3.29854623    -3.54134272     1.09950581
H      3.79457758    -3.04833078     0.78383927
H      3.56975144    -4.22799143     1.67900424
O     -1.17603754    -4.58515802     1.50739018
H     -1.84614052    -4.81403954     2.18506109
H     -1.50300091    -4.95771586     0.70166530
O     -4.05444499     2.62542952     1.50902235
H     -4.75204795     2.44356094     2.08288963
H     -4.34787852     2.19217918     0.69896061
O      1.89493530    -4.56699141    -0.86426231
H      2.24897300    -4.43065471    -0.06712932
H      2.67481991    -4.41846071    -1.53833870
O     -1.36152503     2.71019840     4.17392381
H     -0.66975739     3.49677897     4.13012090
H     -2.13751007     3.16258903     4.31842412
O     -1.42629213     1.15705210    -4.33930916
H     -0.75217665     1.58770420    -4.71000775
H     -1.02502400     0.49874945    -3.76399852
O     -3.52069622    -1.52670353    -3.19911645
H     -3.26714061    -0.70521140    -2.45426099
H     -4.25136829    -1.02180594    -3.60678222
72
iceII n=24 T=150K rep=5
O      0.11649308     0.05767040     0.12988950
H      0.35885545    -0.92635586     0.58512147
H     -0.43514306     0.44055526     0.74256662
O     -0.18660403    -0.38496270    -2.59707327
H     -0.23212550    -1.43184710    -2.37472835
H      0.07153948    -0.12473647    -1.60171814
O      0.82492720    -2.49107003     1.66020589
H      0.32277002    -3.13476794     1.69536652
H      1.78555089    -2.77902101     1.47548705
O      2.13188345     1.71129053    -0.83871536
H      1.67166612     2.32489960    -1.41805793
H      1.70552218     1.12353063    -0.38972081
O     -1.65395876     1.15858238     2.01785791
H     -1.25050006     1.62724993     2.81479337
H     -2.34374428     1.47518060     1.68610972
O     -1.44296457     2.53920395    -1.21905458
H     -1.02968621     2.87630240    -0.35773165
H     -0.77494806     2.54729481    -1.80891042
O     -2.33406313    -2.03869971     0.05754814
H     -2.75312873    -1.14633478    -0.45059819
H     -1.84011574    -2.38626897    -0.47883427
O      0.19443386     3.46405138     1.04180740
H      0.87297871     4.02478486     0.65210798
H      0.60987250     3.04829391     1.65597355
O     -3.01262317     0.33991654    -1.38427203
H     -2.40726735     0.98293315    -1.30968455
H     -3.79152624     0.69547276    -1.28935230
O      0.95567269    -0.67704987     3.67469093
H      1.65907218    -1.00374962     4.09292039
H      0.76542924    -1.23900578     3.09090380
O      1.55186808     2.24242901     2.94475967
H      1.53295489     1.22824565     2.88095858
H      1.64517539     2.39901468     3.86943742
O     -2.05848528    -1.70184398     2.59553541
H     -2.08073757    -1.88702730     1.66764833
H     -1.84543858    -0.63871334     2.70166784
O     -0.65132410    -3.07155056    -1.96855456
H      0.33178616    -3.34092690    -1.48503684
H     -0.61173092    -3.58828577    -2.63031301
O      0.99014573     3.13795540    -2.83914730
H      1.04341615     2.67095885    -3.76165614
H      1.09219716     4.01469889    -2.95082688
O      3.81676746     2.61094643     1.39300611
H      3.16488076     2.58361434     2.18770502
H      3.46150004     2.32605488     0.57662346
O      2.15879515     0.16234999    -4.11514350
H      1.46549363    -0.04716730    -3.53182829
H      1.74325426    -0.14712395    -5.04719485
O      4.69209893     0.38541723    -1.43128568
H      5.49018435     1.06895257    -1.24520416
H      3.97339612     0.87346121    -1.02693535
O      3.12281823    -3.68439887     1.07652412
H      3.94589402    -3.04086768     0.76934922
H      3.45258503    -4.33890504     1.71291238
O     -0.88407693    -4.73861282     1.54944721
H     -1.50635465    -4.73221810     2.34208093
H     -1.33821088    -5.02183175     0.78768721
O     -4.07148424     2.47510499     1.55769409
H     -4.68196353     2.37574210     2.12214869
H     -4.44631158     2.11786862     0.60918628
O      1.64190721    -4.70788648    -1.08910023
H      1.98236709    -4.34133307    -0.36299106
H      2.34908598    -4.46451407    -1.68165105
O     -1.44383675     2.83636585     4.24505190
H     -0.78274491     3.47778666     4.23513012
H     -2.19703799     3.41899271     4.57758316
O     -1.48876565     1.05662996    -4.24381260
H     -0.70804606     1.43608543    -4.66553599
H     -1.17260198     0.40444154    -3.71179495
O     -3.22698741    -1.43676438    -3.55374378
H     -3.01854839    -0.86998319    -2.70962173
H     -4.12524033    -0.96126190    -3.72172809
