48
droplet n=16 rho=0.80 rep=0
O      0.79494074    -1.10704752     1.37101038
H      0.64764189    -1.64240111     0.59559885
H      1.58130766    -1.61559103     1.70153295
O     -3.34392830    -0.99176340     0.32947060
H     -3.30701510    -0.15284588    -0.19390324
H     -2.88470317    -0.67629571     1.13378690
O      2.18189964    -1.84083875    -1.10653306
H      2.38620912    -1.27231045    -1.89628437
H      1.35190501    -2.21850654    -1.41351201
O      1.58856753     4.01958705     1.06791124
H      1.57340671     3.50120135     0.26429916
H      2.18200038     3.53788376     1.56915275
O     -1.42650316    -0.16862094    -3.33275377
H     -1.26912006    -0.78250076    -2.60212075
H     -1.37995690     0.71702007    -2.89460171
O      0.67381365     1.26127273    -1.07543788
H      1.58454606     0.90385018    -1.25848792
H      0.27916959     0.57891919    -0.47499042
O     -1.12797184    -2.32990908    -0.86754873
H     -1.81592468    -1.70184515    -0.51265420
H     -1.49245193    -3.19941051    -0.69907539
O     -2.15950923    -3.05348701    -4.25725034
H     -1.50536788    -3.05356194    -4.96088660
H     -2.40805806    -2.10605899    -4.17410832
O      4.27661709     0.11137082     0.24048582
H      3.79926959    -0.67909951    -0.02387061
H      4.77651368    -0.17329671     1.03177947
O     -2.62860360     1.71927403    -0.08169913
H     -2.11325026     1.81639189     0.69376204
H     -3.25854604     2.41419773    -0.00340686
O      1.56639377    -0.28085454    -3.53476375
H      1.85623303     0.63633323    -3.70522122
H      0.62021593    -0.16735031    -3.69228409
O     -1.38106564     3.50707538    -2.72113714
H     -0.95104929     4.24415588    -3.22928673
H     -0.83067084     3.31720848    -1.96809001
O     -0.20179178     1.69512526     2.36885847
H      0.34541299     2.48782749     2.08203687
H      0.40305592     0.98247840     2.09087273
O     -3.12178655    -4.30033232     0.24747787
H     -3.78170808    -3.87881346     0.78603552
H     -3.32091351    -4.28563250    -0.65727244
O      3.46588334     2.75749999    -1.34371729
H      4.31666813     2.73692742    -1.81054683
H      3.51025314     2.03298232    -0.67210609
O     -2.14629257    -0.44408057     2.90179155
H     -2.49600920    -0.32076953     3.83100292
H     -1.47347046     0.25061167     2.83071009
48
droplet n=16 rho=0.60 rep=0
O      0.90909857    -1.25932496     1.55282982
H      0.76179972    -1.79467855     0.77741828
H      1.69546549    -1.76786847     1.88335238
O     -3.65111119    -1.05869155     0.43081676
H     -3.61419799    -0.21977403    -0.09255708
H     -3.19188605    -0.74322386     1.23513307
O      2.39321509    -2.02554372    -1.19592722
H      2.59752457    -1.45701542    -1.98567852
H      1.56322046    -2.40321150    -1.50290616
O      1.78055832     4.38473615     1.22400718
H      1.76539750     3.86635046     0.42039510
H      2.37399117     3.90303286     1.72524868
O     -1.55051461    -0.18231585    -3.57019784
H     -1.39313152    -0.79619567    -2.83956482
H     -1.50396836     0.70332517    -3.13204578
O      0.77165529     1.34748701    -1.11090738
H      1.68238771     0.99006446    -1.29395743
H      0.37701124     0.66513348    -0.51045992
O     -1.26408616    -2.57833777    -0.87854072
H     -1.95203901    -1.95027384    -0.52364620
H     -1.62856625    -3.44783920    -0.71006738
O     -2.35052690    -3.33485741    -4.64776377
H     -1.69638555    -3.33493234    -5.35140003
H     -2.59907573    -2.38742939    -4.56462176
O      4.72049659     0.08066990     0.34112885
H      4.24314908    -0.70980043     0.07677241
H      5.22039318    -0.20399762     1.13242250
O     -2.88428284     1.91303553    -0.00251772
H     -2.36892950     2.01015339     0.77294345
H     -3.51422528     2.60795923     0.07577455
O      1.71473488    -0.28038470    -3.84275120
H      2.00457414     0.63680307    -4.01320867
H      0.76855704    -0.16688047    -4.00027154
O     -1.47445516     3.87255217    -2.92802072
H     -1.04443880     4.60963266    -3.43617032
H     -0.92406035     3.68268526    -2.17497360
O     -0.17073819     1.86257102     2.64708079
H      0.37646658     2.65527326     2.36025919
H      0.43410951     1.14992417     2.36909504
O     -3.45207565    -4.72433551     0.31886234
H     -4.11199717    -4.30281665     0.85741999
H     -3.65120260    -4.70963569    -0.58588797
O      3.85744234     3.00418416    -1.41331980
H      4.70822713     2.98361159    -1.88014934
H      3.90181214     2.27966649    -0.74170859
O     -2.33874731    -0.46717336     3.28138549
H     -2.68846395    -0.34386232     4.21059686
H     -1.66592520     0.22751888     3.21030403
48
droplet n=16 rho=0.40 rep=0
O      1.08976696    -1.50032217     1.84058077
H      0.94246810    -2.03567576     1.06516924
H      1.87613388    -2.00886568     2.17110334
O     -4.13726476    -1.16461333     0.59120916
H     -4.10035156    -0.32569582     0.06783532
H     -3.67803962    -0.84914564     1.39552547
O      2.72764701    -2.31786136    -1.33740413
H      2.93195649    -1.74933306    -2.12715544
H      1.89765238    -2.69552915    -1.64438307
O      2.08440666     4.96262818     1.47104762
H      2.06924585     4.44424249     0.66743555
H      2.67783951     4.48092489     1.97228913
O     -1.74677754    -0.20398968    -3.94598141
H     -1.58939445    -0.81786950    -3.21534840
H     -1.70023129     0.68165134    -3.50782936
O      0.92650138     1.48393141    -1.16704210
H      1.83723380     1.12650886    -1.35009214
H      0.53185732     0.80157787    -0.56659464
O     -1.47950331    -2.97150582    -0.89593686
H     -2.16745616    -2.34344188    -0.54104234
H     -1.84398341    -3.84100725    -0.72746352
O     -2.65283516    -3.78015965    -5.26579789
H     -1.99869381    -3.78023458    -5.96943415
H     -2.90138399    -2.83273162    -5.18265587
O      5.42298886     0.03208203     0.50040844
H      4.94564136    -0.75838830     0.23605201
H      5.92288545    -0.25258549     1.29170209
O     -3.28892574     2.21968622     0.12279631
H     -2.77357240     2.31680407     0.89825748
H     -3.91886819     2.91460991     0.20108858
O      1.94950238    -0.27964112    -4.33017810
H      2.23934164     0.63754665    -4.50063557
H      1.00332455    -0.16613689    -4.48769844
O     -1.62225520     4.45096279    -3.25543869
H     -1.19223885     5.18804328    -3.76358828
H     -1.07186040     4.26109588    -2.50239156
O     -0.12159218     2.12757393     3.08740081
H      0.42561259     2.92027617     2.80057921
H      0.48325552     1.41492707     2.80941507
O     -3.97479755    -5.39537116     0.43183679
H     -4.63471907    -4.97385230     0.97039444
H     -4.17392450    -5.38067134    -0.47291353
O      4.47713119     3.39459131    -1.52347407
H      5.32791597     3.37401874    -1.99030362
H      4.52150099     2.67007364    -0.85186287
O     -2.64332991    -0.50372046     3.88213820
H     -2.99304654    -0.38040942     4.81134956
H     -1.97050780     0.19097178     3.81105674
48
droplet n=16 rho=0.20 rep=0
O      1.46122472    -1.99581719     2.43220238
H      1.31392586    -2.53117078     1.65679085
H      2.24759163    -2.50436070     2.76272495
O     -5.13680605    -1.38239060     0.92097908
H     -5.09989285    -0.54347309     0.39760525
H     -4.67758092    -1.06692291     1.72529539
O      3.41524560    -2.91887219    -1.62828344
H      3.61955509    -2.35034389    -2.41803475
H      2.58525097    -3.29653998    -1.93526238
O      2.70912483     6.15078556     1.97896764
H      2.69396401     5.63239987     1.17535557
H      3.30255768     5.66908227     2.48020915
O     -2.15029798    -0.24855149    -4.71859983
H     -1.99291489    -0.86243131    -3.98796682
H     -2.10375172     0.63708952    -4.28044778
O      1.24486797     1.76446377    -1.28245618
H      2.15560039     1.40704122    -1.46550623
H      0.85022392     1.08211023    -0.68200873
O     -1.92240522    -3.77986705    -0.93170367
H     -2.61035807    -3.15180311    -0.57680915
H     -2.28688532    -4.64936848    -0.76323033
O     -3.27438688    -4.69570980    -6.53648818
H     -2.62024553    -4.69578473    -7.24012443
H     -3.52293571    -3.74828177    -6.45334616
O      6.86732679    -0.06781558     0.82789042
H      6.38997928    -0.85828592     0.56353399
H      7.36722337    -0.35248311     1.61918407
O     -4.12087951     2.85016606     0.38044442
H     -3.60552617     2.94728391     1.15590559
H     -4.75082195     3.54508975     0.45873669
O      2.43218899    -0.27811231    -5.33233739
H      2.72202825     0.63907547    -5.50279485
H      1.48601115    -0.16460807    -5.48985772
O     -1.92613501     5.64018640    -3.92861645
H     -1.49611865     6.37726689    -4.43676605
H     -1.37574021     5.45031949    -3.17556933
O     -0.02054701     2.67242512     3.99270743
H      0.52665776     3.46512735     3.70588583
H      0.58430068     1.95977826     3.71472169
O     -5.04952406    -6.77503364     0.66411446
H     -5.70944558    -6.35351479     1.20267211
H     -5.24865101    -6.76033383    -0.24063585
O      5.75122363     4.19727608    -1.74995343
H      6.60200842     4.17670351    -2.21678298
H      5.79559344     3.47275841    -1.07834223
O     -3.26955772    -0.57886201     5.11729757
H     -3.61927435    -0.45555097     6.04650894
H     -2.59673561     0.11583024     5.04621611
48
droplet-evaporation n=16 rep=0
O      0.71468729    -0.99999582     1.24319053
H      0.56738844    -1.53534941     0.46777900
H      1.50105421    -1.50853933     1.57371310
O     -3.12797741    -0.94471262     0.25822380
H     -3.09106421    -0.10579510    -0.26515003
H     -2.66875227    -0.62924493     1.06254011
O      2.03334396    -1.71099037    -1.04368859
H      2.23765344    -1.14246206    -1.83343990
H      1.20334933    -2.08865815    -1.35066753
O      1.45359717     3.76288564     0.95817512
H      1.43843635     3.24449995     0.15456304
H      2.04703002     3.28118236     1.45941663
O     -1.33932257    -0.15899336    -3.16582956
H     -1.18193947    -0.77287318    -2.43519654
H     -1.29277631     0.72664765    -2.72767750
O      0.60503054     1.20066371    -1.05050267
H      1.51576296     0.84324116    -1.23355271
H      0.21038649     0.51831017    -0.45005521
O     -1.03228288    -2.15526264    -0.85982131
H     -1.72023573    -1.52719870    -0.50492678
H     -1.39676297    -3.02476407    -0.69134797
O     -2.02522298    -2.85568240    -3.98271770
H     -1.37108163    -2.85575733    -4.68635396
H     -2.27377181    -1.90825438    -3.89957569
O      3.96456788     0.13295370     0.16973334
H      3.48722038    -0.65751663    -0.09462309
H      4.46446447    -0.15171383     0.96102699
O     -2.44885999     1.58305887    -0.13736400
H     -1.93350665     1.68017672     0.63809717
H     -3.07880243     2.27798256    -0.05907173
O      1.46210933    -0.28118484    -3.31824724
H      1.75194859     0.63600293    -3.48870470
H      0.51593149    -0.16768061    -3.47576757
O     -1.31541241     3.25014362    -2.57569708
H     -0.88539605     3.98722412    -3.08384668
H     -0.76501761     3.06027672    -1.82264996
O     -0.22362259     1.57741016     2.17326697
H      0.32358218     2.37011240     1.88644538
H      0.38122511     0.86476330     1.89528123
O     -5.96830820    -8.06476546     0.93507703
H     -6.62822972    -7.64324661     1.47363468
H     -6.16743515    -8.05006565     0.03032672
O      3.19061566     2.58407994    -1.29478642
H      4.04140045     2.56350737    -1.76161596
H      3.23498547     1.85956227    -0.62317522
O     -2.01099605    -0.42784624     2.63493536
H     -2.36071268    -0.30453520     3.56414673
H     -1.33817394     0.26684600     2.56385391
48
droplet n=16 rho=0.80 rep=1
O      1.08791242    -0.83665019     1.77884989
H      0.17972956    -1.02081772     1.49286514
H      1.55221606    -1.66394828     1.69502260
O     -3.86740218    -1.30993213     0.27756178
H     -3.63251080    -0.50458055    -0.17850763
H     -3.51843690    -1.30169763     1.17630942
O      2.34037471    -2.07773642    -1.19637388
H      2.09037897    -1.41383941    -1.91015248
H      1.58973444    -1.97690061    -0.62339289
O      1.89612181     3.55145398     0.84546535
H      2.34593759     2.87957240     0.29937081
H      1.76974814     4.22850731     0.12846780
O     -1.29913374     0.13510279    -2.97095713
H     -1.02059755     0.04253804    -2.07178622
H     -2.17655311     0.41168200    -3.18924882
O      0.20020378     1.19542224    -0.91106508
H      1.03017390     1.20962508    -1.30740949
H      0.48950258     1.24359530    -0.00500402
O     -0.78638943    -1.83399748    -0.87356219
H     -1.68739715    -1.53908153    -0.59047245
H     -0.86346551    -2.65270227    -1.29197172
O     -1.97690494    -2.44468225    -4.13734388
H     -1.22860789    -2.94564355    -3.84226417
H     -1.66923151    -1.52159181    -4.22717615
O      3.99954975    -0.07893557     0.56817933
H      3.67554066    -0.76063047     0.01215982
H      3.61071363    -0.25622443     1.40245007
O     -2.41856648     1.58899621     0.09114946
H     -1.56026423     1.27063424    -0.20784296
H     -2.17903381     2.24391481     0.79888336
O      1.69424791    -0.03755199    -3.34134499
H      1.90874588    -0.37045751    -4.20416546
H      0.73234281     0.07397085    -3.36110222
O     -1.36643507     3.36565001    -3.42945164
H     -2.08233489     3.39448312    -2.87458592
H     -0.61734956     2.97909537    -2.91703942
O     -0.53009450     2.33456390     2.24573130
H      0.25333506     2.80144669     1.98676809
H     -0.80142421     2.79656996     3.04612181
O     -3.53607598    -4.37143078    -0.39741182
H     -3.77036262    -3.46926867    -0.36134484
H     -3.45524272    -4.80400257     0.50285996
O      3.62662504     2.16742443    -1.47921978
H      3.78528110     1.94999360    -2.40252759
H      4.14081420     1.56053300    -0.96088654
O     -2.08746581    -0.65804756     2.65084408
H     -1.95335806    -0.81311425     3.56644644
H     -1.68876200     0.14962133     2.32209555
48
droplet n=16 rho=0.60 rep=1
O      1.19881177    -0.96088820     2.00496784
H      0.29062891    -1.14505573     1.71898309
H      1.66311541    -1.78818629     1.92114056
O     -4.22073973    -1.42057650     0.37984346
H     -3.98584835    -0.61522493    -0.07622595
H     -3.87177445    -1.41234200     1.27859110
O      2.55864710    -2.26729338    -1.26200679
H      2.30865136    -1.60339637    -1.97578538
H      1.80800684    -2.16645757    -0.68902580
O      2.11410300     3.90295099     0.94767794
H      2.56391878     3.23106941     0.40158340
H      1.98772933     4.58000432     0.23068039
O     -1.43367248     0.14876968    -3.18762320
H     -1.15513629     0.05620494    -2.28845228
H     -2.31109185     0.42534890    -3.40591488
O      0.27420165     1.31172158    -0.92616070
H      1.10417177     1.32592442    -1.32250512
H      0.56350046     1.35989463    -0.02009965
O     -0.88204556    -2.04225061    -0.90652277
H     -1.78305329    -1.74733466    -0.62343303
H     -0.95912165    -2.86095540    -1.32493231
O     -2.12414006    -2.68266301    -4.48735417
H     -1.37584301    -3.18362431    -4.19227447
H     -1.81646663    -1.75957257    -4.57718644
O      4.39446019    -0.12179996     0.69419335
H      4.07045109    -0.80349487     0.13817384
H      4.00562406    -0.29908883     1.52846410
O     -2.60884703     1.75410385     0.17353167
H     -1.75054478     1.43574189    -0.12546075
H     -2.36931436     2.40902245     0.88126557
O      1.85598773    -0.05486154    -3.64773781
H      2.07048570    -0.38776706    -4.51055829
H      0.89408263     0.05666130    -3.66749504
O     -1.48654286     3.68627310    -3.67929900
H     -2.20244269     3.71510622    -3.12443328
H     -0.73745735     3.29971847    -3.16688678
O     -0.54996460     2.59457852     2.54940710
H      0.23346496     3.06146132     2.29044389
H     -0.82129432     3.05658459     3.34979761
O     -3.88080295    -4.80173196    -0.34650005
H     -4.11508959    -3.89956986    -0.31043306
H     -3.79996968    -5.23430376     0.55377174
O      4.03048984     2.35180193    -1.58218145
H      4.18914590     2.13437111    -2.50548926
H      4.54467900     1.74491050    -1.06384821
O     -2.26337869    -0.70848530     2.99681536
H     -2.12927094    -0.86355199     3.91241772
H     -1.86467489     0.09918359     2.66806683
48
droplet n=16 rho=0.40 rep=1
O      1.37432322    -1.15750968     2.36282648
H      0.46614036    -1.34167720     2.07684174
H      1.83862685    -1.98480777     2.27899920
O     -4.77993856    -1.59568443     0.54171643
H     -4.54504718    -0.79033286     0.08564702
H     -4.43097329    -1.58744993     1.44046408
O      2.90408921    -2.56728989    -1.36587868
H      2.65409347    -1.90339288    -2.07965728
H      2.15344894    -2.46645408    -0.79289769
O      2.45908423     4.45923696     1.10944156
H      2.90890001     3.78735538     0.56334702
H      2.33271056     5.13629028     0.39244401
O     -1.64659609     0.17039917    -3.53052310
H     -1.36805990     0.07783443    -2.63135219
H     -2.52401546     0.44697839    -3.74881479
O      0.39131212     1.49577916    -0.95005133
H      1.22128224     1.50998200    -1.34639575
H      0.68061092     1.54395222    -0.04399028
O     -1.03343281    -2.37183604    -0.95868683
H     -1.93444054    -2.07692009    -0.67559709
H     -1.11050890    -3.19054083    -1.37709637
O     -2.35715720    -3.05929596    -5.04128723
H     -1.60886015    -3.56025727    -4.74620752
H     -2.04948376    -2.13620552    -5.13111949
O      5.01945307    -0.18963799     0.89362559
H      4.69544397    -0.87133289     0.33760608
H      4.63061694    -0.36692686     1.72789633
O     -2.90998871     2.01540640     0.30391134
H     -2.05168646     1.69704443     0.00491892
H     -2.67045604     2.67032500     1.01164524
O      2.11196030    -0.08225597    -4.13264101
H      2.32645827    -0.41516149    -4.99546149
H      1.15005519     0.02926687    -4.15239825
O     -1.67662778     4.19369742    -4.07471227
H     -2.39252761     4.22253053    -3.51984654
H     -0.92754227     3.80714278    -3.56230005
O     -0.58141140     3.00608270     3.03001030
H      0.20201816     3.47296549     2.77104709
H     -0.85274112     3.46808876     3.83040081
O     -4.42637452    -5.48273494    -0.26592609
H     -4.66066115    -4.58057284    -0.22985911
H     -4.34554125    -5.91530674     0.63434570
O      4.66965408     2.64360134    -1.74513057
H      4.82831014     2.42617051    -2.66843838
H      5.18384324     2.03670991    -1.22679733
O     -2.54178183    -0.78830904     3.54435619
H     -2.40767408    -0.94337573     4.45995855
H     -2.14307802     0.01935984     3.21560766
48
droplet n=16 rho=0.20 rep=1
O      1.73517820    -1.56176730     3.09859089
H      0.82699534    -1.74593482     2.81260614
H      2.19948184    -2.38906539     3.01476361
O     -5.92966237    -1.95570978     0.87453045
H     -5.69477098    -1.15035820     0.41846104
H     -5.58069709    -1.94747528     1.77327809
O      3.61432498    -3.18408861    -1.57944135
H      3.36432924    -2.52019160    -2.29321994
H      2.86368471    -3.08325280    -1.00646036
O      3.16837242     5.60297184     1.44203075
H      3.61818820     4.93109025     0.89593620
H      3.04199875     6.28002516     0.72503320
O     -2.08437122     0.21486983    -4.23553205
H     -1.80583502     0.12230508    -3.33636114
H     -2.96179059     0.49144904    -4.45382374
O      0.63209353     1.87420517    -0.99917093
H      1.46206365     1.88840801    -1.39551535
H      0.92139233     1.92237822    -0.09310988
O     -1.34468797    -3.04947015    -1.06593716
H     -2.24569570    -2.75455420    -0.78284742
H     -1.42176406    -3.86817494    -1.48434670
O     -2.83624501    -3.83366072    -6.18018447
H     -2.08794796    -4.33462203    -5.88510477
H     -2.52857158    -2.91057028    -6.27001674
O      6.30445072    -0.32911430     1.30366219
H      5.98044163    -1.01080921     0.74764268
H      5.91561460    -0.50640317     2.13793293
O     -3.52914193     2.55264958     0.57197452
H     -2.67083967     2.23428761     0.27298210
H     -3.28960925     3.20756817     1.27970841
O      2.63824492    -0.13857946    -5.12961154
H      2.85274289    -0.47148498    -5.99243201
H      1.67633982    -0.02705662    -5.14936877
O     -2.06744611     5.23697178    -4.88768971
H     -2.78334594     5.26580489    -4.33282399
H     -1.31836060     4.85041715    -4.37527749
O     -0.64606665     3.85214337     4.01813992
H      0.13736291     4.31902616     3.75917671
H     -0.91739637     4.31414943     4.81853043
O     -5.54808038    -6.88289045    -0.10026445
H     -5.78236701    -5.98072834    -0.06419746
H     -5.46724711    -7.31546225     0.80000734
O      5.98378832     3.24354665    -2.08015716
H      6.14244438     3.02611582    -3.00346498
H      6.49797748     2.63665522    -1.56182393
O     -3.11418415    -0.95242823     4.67011091
H     -2.98007639    -1.10749492     5.58571327
H     -2.71548034    -0.14475934     4.34136237
48
droplet-evaporation n=16 rep=1
O      1.00994970    -0.74931033     1.61988798
H      0.10176684    -0.93347786     1.33390324
H      1.47425334    -1.57660843     1.53606070
O     -3.61900435    -1.23214865     0.20565731
H     -3.38411297    -0.42679707    -0.25041210
H     -3.27003908    -1.22391415     1.10440495
O      2.18692827    -1.94447706    -1.15023367
H      1.93693253    -1.28058004    -1.86401226
H      1.43628801    -1.84364125    -0.57725268
O      1.74288010     3.30435006     0.77360946
H      2.19269588     2.63246848     0.22751491
H      1.61650643     3.98140338     0.05661191
O     -1.20455242     0.12549491    -2.81863995
H     -0.92601623     0.03293016    -1.91946904
H     -2.08197179     0.40207412    -3.03693164
O      0.14818296     1.11366331    -0.90045279
H      0.97815308     1.12786615    -1.29679721
H      0.43748176     1.16183636     0.00560827
O     -0.71914275    -1.68759463    -0.85039076
H     -1.62015047    -1.39267868    -0.56730101
H     -0.79621883    -2.50629942    -1.26880029
O     -1.87339802    -2.27738074    -3.89128513
H     -1.12510097    -2.77834205    -3.59620542
H     -1.56572459    -1.35429030    -3.98111740
O      3.72192601    -0.04880171     0.47959092
H      3.39791691    -0.73049661    -0.07642859
H      3.33308988    -0.22609057     1.31386166
O     -2.28479843     1.47292482     0.03323441
H     -1.42649617     1.15456285    -0.26575800
H     -2.04526575     2.12784342     0.74096831
O      1.58054412    -0.02538330    -3.12594951
H      1.79504209    -0.35828882    -3.98876998
H      0.61863901     0.08613954    -3.14570674
O     -1.28199877     3.14025058    -3.25380786
H     -1.99789859     3.16908369    -2.69894214
H     -0.53291326     2.75369595    -2.74139564
O     -0.51612573     2.15177249     2.03224589
H      0.26730383     2.61865528     1.77328269
H     -0.78745545     2.61377855     2.83263641
O     -7.12446377    -8.84796181     0.14558245
H     -7.35875041    -7.94579971     0.18164943
H     -7.04363050    -9.28053361     1.04585423
O      3.34270634     2.03780624    -1.40683728
H      3.50136240     1.82037542    -2.33014510
H      3.85689549     1.43091482    -0.88850405
O     -1.96379829    -0.62258961     2.40762478
H     -1.82969054    -0.77765630     3.32322714
H     -1.56509448     0.18507928     2.07887624
48
droplet n=16 rho=0.80 rep=2
O      1.05712358    -1.19413790     1.72260220
H      0.34270489    -1.62520374     1.23761139
H      0.94381475    -1.18515408     2.67201392
O     -3.82835666    -1.27611438    -0.46984855
H     -3.45955665    -0.40971016    -0.41347370
H     -4.17605090    -1.55154604     0.38976472
O      2.41415685    -1.83014982    -1.27874578
H      2.16641805    -1.43543658    -2.08709788
H      1.56768558    -2.10415711    -0.84858811
O      1.88608846     3.25678058     1.27307770
H      2.11228439     4.00063479     0.74261919
H      1.88950930     2.56860033     0.52879367
O     -1.68703290     0.28493991    -2.78189902
H     -1.45417060     0.60572708    -1.92682573
H     -2.64248515     0.24754776    -2.85904483
O      0.71978217     1.18470847    -0.63178359
H      1.61059960     1.18793145    -1.01180397
H      0.88786028     0.52891875     0.10117935
O     -0.50685397    -2.01710319    -0.30771068
H     -1.18313756    -1.51196281     0.16165702
H     -0.92687225    -2.12499619    -1.20881956
O     -1.66911592    -2.55680225    -4.53286471
H     -1.71130847    -2.29356239    -5.47761690
H     -1.86687057    -1.75511439    -4.07955458
O      4.12260435    -0.27658661     0.98729113
H      4.19995856    -1.16659760     0.58436170
H      3.25192951    -0.33604944     1.34309089
O     -2.54288279     1.73907600    -0.06608187
H     -3.17885702     2.41203243     0.20026976
H     -1.69801053     2.18614768     0.02470186
O      1.74611076     0.45741271    -3.98291403
H      2.17023421     1.30269347    -3.95701315
H      0.80631357     0.45405314    -3.78367867
O     -0.96023339     3.25914594    -3.89037131
H     -1.08853560     2.46476581    -3.31105290
H     -0.98557704     4.00855505    -3.33392896
O     -0.84356073     3.12050099     2.82968257
H      0.07851062     3.15506089     2.60824528
H     -0.93636610     3.45156915     3.70542530
O     -4.01293976    -4.20697300    -0.61430712
H     -4.11494706    -3.26838429    -0.89219289
H     -4.64465694    -4.69612485    -1.19279092
O      3.57180441     1.06163547    -1.60502483
H      3.54923555     0.38577618    -2.27785168
H      3.84405487     0.56602064    -0.80520452
O     -2.34779886    -0.34279202     2.76968325
H     -2.01545136    -0.22294780     3.64768472
H     -2.19310057     0.44991027     2.23855183
48
droplet n=16 rho=0.60 rep=2
O      1.16035384    -1.33886268     1.97415671
H      0.44593515    -1.76992852     1.48916590
H      1.04704501    -1.32987886     2.92356843
O     -4.18833673    -1.39510405    -0.42379864
H     -3.81953671    -0.52869983    -0.36742379
H     -4.53603097    -1.67053571     0.43581463
O      2.64502241    -2.02067521    -1.35752180
H      2.39728360    -1.62596198    -2.16587390
H      1.79855114    -2.29468250    -0.92736413
O      2.10821897     3.57603450     1.42104645
H      2.33441491     4.31988871     0.89058793
H      2.11163981     2.88785424     0.67676241
O     -1.85645408     0.31274007    -2.97317105
H     -1.62359178     0.63352723    -2.11809776
H     -2.81190633     0.27534792    -3.05031685
O      0.85235302     1.27166436    -0.62091997
H      1.74317044     1.27488733    -1.00094035
H      1.02043113     0.61587464     0.11204296
O     -0.57003618    -2.21716675    -0.29055574
H     -1.24631977    -1.71202637     0.17881197
H     -0.99005446    -2.32505975    -1.19166462
O     -1.82054245    -2.78878345    -4.94294229
H     -1.86273499    -2.52554358    -5.88769448
H     -2.01829709    -1.98709559    -4.48963216
O      4.53550627    -0.34665948     1.14768093
H      4.61286047    -1.23667046     0.74475150
H      3.66483143    -0.40612230     1.50348069
O     -2.76718970     1.94129085     0.00185600
H     -3.40316393     2.61424728     0.26820762
H     -1.92231744     2.38836253     0.09263973
O      1.92915097     0.52130809    -4.31360385
H      2.35327442     1.36658884    -4.28770297
H      0.98935378     0.51794852    -4.11436849
O     -1.03742108     3.57526153    -4.18119826
H     -1.16572329     2.78088140    -3.60187985
H     -1.06276472     4.32467064    -3.62475591
O     -0.87603199     3.43643757     3.19902647
H      0.04603936     3.47099747     2.97758918
H     -0.96883735     3.76750574     4.07476919
O     -4.41681936    -4.62567953    -0.64225399
H     -4.51882666    -3.68709082    -0.92013976
H     -5.04853654    -5.11483138    -1.22073780
O      3.96426258     1.11879696    -1.69969059
H      3.94169372     0.44293767    -2.37251743
H      4.23651304     0.62318213    -0.89987027
O     -2.54314090    -0.35706187     3.12267499
H     -2.21079340    -0.23721766     4.00067646
H     -2.38844261     0.43564041     2.59154357
48
droplet n=16 rho=0.40 rep=2
O      1.32372805    -1.56790691     2.37227174
H      0.60930935    -1.99897275     1.88728093
H      1.21041922    -1.55892310     3.32168346
O     -4.75804813    -1.58341940    -0.35091917
H     -4.38924812    -0.71701518    -0.29454432
H     -5.10574238    -1.85885106     0.50869410
O      3.01039469    -2.32220438    -1.48219425
H      2.76265588    -1.92749114    -2.29054635
H      2.16392342    -2.59621167    -1.05203658
O      2.45976702     4.08129192     1.65522464
H      2.68596296     4.82514613     1.12476612
H      2.46318787     3.39311166     0.91094060
O     -2.12458331     0.35673713    -3.27588185
H     -1.89172101     0.67752430    -2.42080856
H     -3.08003556     0.31934498    -3.35302766
O      1.06216219     1.40928242    -0.60372699
H      1.95297961     1.41250540    -0.98374738
H      1.23024030     0.75349271     0.12923594
O     -0.67002956    -2.53379122    -0.26340599
H     -1.34631316    -2.02865083     0.20596171
H     -1.09004785    -2.64168421    -1.16451487
O     -2.06019299    -3.15592137    -5.59193900
H     -2.10238554    -2.89268151    -6.53669119
H     -2.25794764    -2.35423351    -5.13862887
O      5.18897282    -0.45755814     1.40151693
H      5.26632703    -1.34756913     0.99858749
H      4.31829798    -0.51702097     1.75731668
O     -3.12218216     2.26131998     0.10937578
H     -3.75815638     2.93427641     0.37572740
H     -2.27730989     2.70839167     0.20015951
O      2.21883395     0.62243015    -4.83695996
H      2.64295740     1.46771090    -4.81105908
H      1.27903676     0.61907058    -4.63772460
O     -1.15957980     4.07555217    -4.64146661
H     -1.28788201     3.28117204    -4.06214821
H     -1.18492344     4.82496128    -4.08502426
O     -0.92742163     3.93644492     3.78355727
H     -0.00535028     3.97100482     3.56211997
H     -1.02022699     4.26751309     4.65929999
O     -5.05600703    -5.28833257    -0.68648325
H     -5.15801432    -4.34974387    -0.96436902
H     -5.68772421    -5.77748443    -1.26496706
O      4.58537447     1.20926185    -1.84951044
H      4.56280560     0.53340255    -2.52233729
H      4.85762492     0.71364701    -1.04969012
O     -2.85229299    -0.37964563     3.68132655
H     -2.51994549    -0.25980142     4.55932801
H     -2.69759470     0.41305665     3.15019513
48
droplet n=16 rho=0.20 rep=2
O      1.65962863    -2.03882636     3.19080407
H      0.94520993    -2.46989220     2.70581326
H      1.54631980    -2.02984255     4.14021579
O     -5.92938599    -1.97059947    -0.20107754
H     -5.56058598    -1.10419525    -0.14470269
H     -6.27708023    -2.24603113     0.65853573
O      3.76160730    -2.94215428    -1.73852325
H      3.51386849    -2.54744104    -2.54687535
H      2.91513603    -3.21616157    -1.30836559
O      3.18255673     5.12011111     2.13669960
H      3.40875266     5.86396532     1.60624108
H      3.18597757     4.43193085     1.39241556
O     -2.67586228     0.44719596    -3.89826121
H     -2.44299998     0.76798313    -3.04318792
H     -3.63131453     0.40980382    -3.97540702
O      1.49353398     1.69222788    -0.56837790
H      2.38435141     1.69545085    -0.94839829
H      1.66161209     1.03643816     0.16458503
O     -0.87561793    -3.18477734    -0.20758559
H     -1.55190153    -2.67963696     0.26178212
H     -1.29563621    -3.29267034    -1.10869447
O     -2.55291923    -3.91076416    -6.92628899
H     -2.59511177    -3.64752429    -7.87104118
H     -2.75067388    -3.10907630    -6.47297886
O      6.53251291    -0.68556798     1.92340872
H      6.60986711    -1.57557896     1.52047929
H      5.66183807    -0.74503081     2.27920848
O     -3.85205362     2.91930617     0.33043855
H     -4.48802785     3.59226260     0.59679018
H     -3.00718136     3.36637786     0.42122228
O      2.81442784     0.83033909    -5.91299041
H      3.23855129     1.67561984    -5.88708953
H      1.87463065     0.82697952    -5.71375505
O     -1.41074053     5.10415956    -5.58778740
H     -1.53904274     4.30977943    -5.00846900
H     -1.43608417     5.85356867    -5.03134505
O     -1.03307974     4.96446986     4.98536407
H     -0.11100839     4.99902976     4.76392678
H     -1.12588510     5.29553802     5.86110680
O     -6.37018943    -6.65076027    -0.77741948
H     -6.47219672    -5.71217156    -1.05530525
H     -7.00190661    -7.13991212    -1.35590329
O      5.86239271     1.39525942    -2.15754300
H      5.83982385     0.71940013    -2.83036984
H      6.13464317     0.89964459    -1.35772268
O     -3.48791576    -0.42607828     4.82992513
H     -3.15556826    -0.30623406     5.70792660
H     -3.33321747     0.36662400     4.29879371
48
droplet-evaporation n=16 rep=2
O      0.98455226    -1.09239575     1.54575829
H      0.27013356    -1.52346159     1.06076748
H      0.87124343    -1.08341194     2.49517001
O     -3.57528912    -1.19246413    -0.50222184
H     -3.20648911    -0.32605990    -0.44584699
H     -3.92298336    -1.46789579     0.35739144
O      2.25185737    -1.69620964    -1.22336590
H      2.00411856    -1.30149641    -2.03171800
H      1.40538610    -1.97021694    -0.79320823
O      1.72992974     3.03234370     1.16905504
H      1.95612567     3.77619791     0.63859652
H      1.73335058     2.34416344     0.42477100
O     -1.56792908     0.26539628    -2.64743396
H     -1.33506678     0.58618345    -1.79236067
H     -2.52338133     0.22800413    -2.72457977
O      0.62658430     1.12357810    -0.63942076
H      1.51740172     1.12680108    -1.01944114
H      0.79466241     0.46778839     0.09354217
O     -0.46243660    -1.87645764    -0.31977068
H     -1.13872020    -1.37131725     0.14959702
H     -0.88245489    -1.98435063    -1.22087956
O     -1.56266242    -2.39371847    -4.24457840
H     -1.60485496    -2.13047860    -5.18933058
H     -1.76041707    -1.59203061    -3.79126827
O      3.83233251    -0.22732509     0.87453641
H      3.90968672    -1.11733607     0.47160698
H      2.96165767    -0.28678791     1.23033617
O     -2.38519406     1.59691808    -0.11384248
H     -3.02116829     2.26987451     0.15250915
H     -1.54032180     2.04398977    -0.02305875
O      1.61743270     0.41249399    -3.75043765
H      2.04155615     1.25777474    -3.72453677
H      0.67763551     0.40913442    -3.55120229
O     -0.90597012     3.03691532    -3.68591870
H     -1.03427233     2.24253519    -3.10660030
H     -0.93131377     3.78632442    -3.12947635
O     -0.82073330     2.89839620     2.57003221
H      0.10133805     2.93295610     2.34859492
H     -0.91353866     3.22946437     3.44577493
O     -9.23013891    -9.56798859    -0.94879982
H     -9.33214620    -8.62939989    -1.22668559
H     -9.86185609   -10.05714044    -1.52728363
O      3.29590462     1.02145069    -1.53847440
H      3.27333576     0.34559140    -2.21130125
H      3.56815508     0.52583586    -0.73865409
O     -2.21047256    -0.33276024     2.52152852
H     -1.87812506    -0.21291603     3.39952999
H     -2.05577427     0.45994204     1.99039711
48
droplet n=16 rho=0.80 rep=3
O      0.94621207    -0.81184585     2.25163235
H      0.38036818    -0.20147631     1.81494009
H      0.52281233    -1.49750427     2.73886311
O     -3.72460921    -0.48164528    -0.73695212
H     -3.34289530    -0.01503449    -0.01612499
H     -4.67009810    -0.43716563    -0.67178175
O      2.64012048    -1.92071356    -1.61335113
H      2.33940347    -1.56970857    -2.47433412
H      2.00385971    -2.56711722    -1.22536131
O      1.66274118     3.38297222     2.44196521
H      2.54854015     3.79662628     2.54430544
H      1.72100739     2.59753543     1.92173128
O     -1.21795052     0.28386790    -3.02081104
H     -0.61787845     0.03519604    -2.36657212
H     -2.04048430     0.15411140    -2.48509790
O      0.80159019     0.30151509    -0.44427255
H      1.10131343     0.90635371    -1.13182907
H      1.24200204    -0.60113781    -0.64325551
O     -1.20394900    -2.52096647    -0.56996770
H     -1.83156023    -3.23488807    -0.71450147
H     -1.72863759    -1.94451164    -0.02998934
O     -1.49003269    -2.35570172    -4.48653734
H     -0.54194314    -2.53546644    -4.74519962
H     -1.30514473    -1.53078761    -4.05508494
O      3.81093025    -0.81748264     0.88636901
H      3.87872417    -1.75132770     0.49728119
H      2.88513591    -0.71527441     1.21495869
O     -2.01122057     1.77872240    -0.18166387
H     -1.68040557     2.69738506    -0.17651206
H     -1.23439622     1.22385675    -0.39786866
O      1.82457505     0.57484730    -3.97228616
H      2.49166770     1.21128218    -3.67637808
H      1.25553536     0.90937822    -4.63240129
O     -0.54400684     2.84464761    -4.17423165
H     -0.89861565     2.00301961    -3.72829533
H     -1.29604581     3.04689082    -4.75297454
O     -1.55899647     2.94589773     2.85860917
H     -0.78528626     2.94479007     2.32833463
H     -1.31560064     3.08800864     3.78345335
O     -4.23595543    -3.85881721    -0.95404784
H     -4.26154766    -2.87297611    -0.90753310
H     -4.43972928    -3.93691343    -1.84229619
O      3.63521768     1.18708084    -1.61173975
H      4.23625507     1.83162762    -1.19555593
H      3.60425634     0.50847570    -0.93020624
O     -2.46470029     0.28936104     2.53585997
H     -2.33241065     0.99138401     1.90032442
H     -2.13243236     0.57516689     3.38481560
48
droplet n=16 rho=0.60 rep=3
O      1.02790970    -0.90432106     2.54590352
H      0.46206580    -0.29395151     2.10921126
H      0.60450995    -1.58997947     3.03313428
O     -4.09872093    -0.52121676    -0.71878652
H     -3.71700702    -0.05460597     0.00204060
H     -5.04420982    -0.47673710    -0.65361615
O      2.89405053    -2.13217201    -1.72562440
H      2.59333352    -1.78116703    -2.58660739
H      2.25778976    -2.77857567    -1.33763459
O      1.88140965     3.70272702     2.73967722
H      2.76720862     4.11638109     2.84201745
H      1.93967586     2.91729024     2.21944330
O     -1.32833585     0.29149841    -3.21894687
H     -0.72826378     0.04282655    -2.56470795
H     -2.15086963     0.16174191    -2.68323373
O      0.92674901     0.31362606    -0.45276036
H      1.22647225     0.91846468    -1.14031688
H      1.36716085    -0.58902684    -0.65174332
O     -1.34411890    -2.78753762    -0.54809845
H     -1.97173013    -3.50145921    -0.69263222
H     -1.86880749    -2.21108278    -0.00812009
O     -1.58232947    -2.57938543    -4.86631061
H     -0.63423992    -2.75915014    -5.12497290
H     -1.39744151    -1.75447131    -4.43485822
O      4.18534291    -0.93589870     1.03951179
H      4.25313683    -1.86974376     0.65042396
H      3.25954857    -0.83369047     1.36810146
O     -2.15682098     1.96169847    -0.14106124
H     -1.82600599     2.88036113    -0.13590944
H     -1.37999664     1.40683282    -0.35726603
O      2.03114931     0.65703145    -4.31831885
H      2.69824195     1.29346632    -4.02241077
H      1.46210961     0.99156236    -4.97843398
O     -0.61622706     3.10124675    -4.53282572
H     -0.97083587     2.25961875    -4.08688940
H     -1.36826603     3.30348996    -5.11156861
O     -1.66212113     3.23886698     3.22550933
H     -0.88841091     3.23775932     2.69523479
H     -1.41872529     3.38097788     4.15035351
O     -4.65031169    -4.22496867    -1.01233755
H     -4.67590392    -3.23912758    -0.96582280
H     -4.85408554    -4.30306489    -1.90058590
O      4.03985456     1.29716563    -1.67115748
H      4.64089195     1.94171241    -1.25497366
H      4.00889322     0.61856049    -0.98962397
O     -2.67751377     0.34337887     2.86420076
H     -2.54522413     1.04540184     2.22866521
H     -2.34524584     0.62918472     3.71315639
48
droplet n=16 rho=0.40 rep=3
O      1.15720594    -1.05067410     3.01162277
H      0.59136205    -0.44030455     2.57493050
H      0.73380620    -1.73633251     3.49885352
O     -4.69079736    -0.58384334    -0.69003729
H     -4.30908345    -0.11723255     0.03078983
H     -5.63628625    -0.53936369    -0.62486693
O      3.29592514    -2.46683025    -1.90331025
H      2.99520812    -2.11582527    -2.76429324
H      2.65966437    -3.11323391    -1.51532043
O      2.22747860     4.20877716     3.21084201
H      3.11327757     4.62243122     3.31318224
H      2.28574481     3.42334037     2.69060808
O     -1.50303380     0.30357461    -3.53252046
H     -0.90296174     0.05490275    -2.87828154
H     -2.32556759     0.17381811    -2.99680732
O      1.12482777     0.33279311    -0.46619334
H      1.42455101     0.93763173    -1.15374985
H      1.56523961    -0.56985979    -0.66517629
O     -1.56595450    -3.20941826    -0.51348775
H     -2.19356573    -3.92333986    -0.65802152
H     -2.09064308    -2.63296343     0.02649061
O     -1.72840013    -2.93339158    -5.46734714
H     -0.78031058    -3.11315630    -5.72600943
H     -1.54351218    -2.10847747    -5.03589475
O      4.77789563    -1.12330625     1.28187850
H      4.84568955    -2.05715131     0.89279067
H      3.85210129    -1.02109803     1.61046817
O     -2.38725102     2.25127993    -0.07680274
H     -2.05643602     3.16994259    -0.07165094
H     -1.61042667     1.69641428    -0.29300753
O      2.35807771     0.78709767    -4.86595687
H      3.02517035     1.42353254    -4.57004880
H      1.78903801     1.12162858    -5.52607201
O     -0.73052418     3.50734551    -5.10034364
H     -1.08513299     2.66571752    -4.65440731
H     -1.48256314     3.70958873    -5.67908653
O     -1.82532820     3.70252577     3.80617262
H     -1.05161799     3.70141811     3.27589808
H     -1.58193236     3.84463667     4.73101679
O     -5.30607992    -4.80444706    -1.10458796
H     -5.33167215    -3.81860597    -1.05807321
H     -5.50985377    -4.88254328    -1.99283631
O      4.68024072     1.47138795    -1.76519313
H      5.28127810     2.11593472    -1.34900931
H      4.64927937     0.79278280    -1.08365962
O     -3.01431649     0.42886853     3.38383924
H     -2.88202686     1.13089151     2.74830370
H     -2.68204857     0.71467438     4.23279487
48
droplet n=16 rho=0.20 rep=3
O      1.42304156    -1.35157883     3.96915069
H      0.85719766    -0.74120929     3.53245842
H      0.99964181    -2.03723725     4.45638144
O     -5.90811815    -0.71260482    -0.63092832
H     -5.52640424    -0.24599403     0.08989881
H     -6.85360704    -0.66812517    -0.56575795
O      4.12218723    -3.15489417    -2.26863585
H      3.82147021    -2.80388919    -3.12961883
H      3.48592645    -3.80129783    -1.88064603
O      2.93900316     5.24922618     4.17956608
H      3.82480214     5.66288025     4.28190630
H      2.99726937     4.46378940     3.65933215
O     -1.86221624     0.32840351    -4.17723393
H     -1.26214418     0.07973165    -3.52299501
H     -2.68475003     0.19864701    -3.64152079
O      1.53208159     0.37220094    -0.49381179
H      1.83180483     0.97703957    -1.18136830
H      1.97249344    -0.53045195    -0.69279475
O     -2.02205284    -4.07681316    -0.44232747
H     -2.64966407    -4.79073475    -0.58686124
H     -2.54674143    -3.50035832     0.09765089
O     -2.02872429    -3.66123520    -6.70309006
H     -1.08063474    -3.84099992    -6.96175234
H     -1.84383634    -2.83632109    -6.27163766
O      5.99619567    -1.50861986     1.78018922
H      6.06398959    -2.44246493     1.39110139
H      5.07040133    -1.40641164     2.10877889
O     -2.86101970     2.84666511     0.05531400
H     -2.53020470     3.76532777     0.06046581
H     -2.08419536     2.29179946    -0.16089079
O      3.03024893     1.05451637    -5.99191142
H      3.69734158     1.69095124    -5.69600335
H      2.46120924     1.38904729    -6.65202656
O     -0.96552129     4.34229256    -6.26717162
H     -1.32013010     3.50066456    -5.82123529
H     -1.71756025     4.54453577    -6.84591451
O     -2.16088515     4.65581736     5.00002775
H     -1.38717493     4.65470970     4.46975321
H     -1.91748931     4.79792826     5.92487192
O     -6.65435229    -5.99586602    -1.29425662
H     -6.67994452    -5.01002492    -1.24774187
H     -6.85812614    -6.07396223    -2.18250497
O      5.99688723     1.82959245    -1.95853227
H      6.59792462     2.47413923    -1.54234845
H      5.96592589     1.15098731    -1.27699876
O     -3.70678952     0.60463696     4.45222618
H     -3.57449989     1.30665994     3.81669063
H     -3.37452160     0.89044281     5.30118181
48
droplet-evaporation n=16 rep=3
O      0.88877829    -0.74683538     2.04475844
H      0.32293439    -0.13646584     1.60806618
H      0.46537854    -1.43249380     2.53198920
O     -3.46160706    -0.45382636    -0.74972261
H     -3.07989315     0.01278443    -0.02889549
H     -4.40709595    -0.40934671    -0.68455225
O      2.46160656    -1.77205735    -1.53442254
H      2.16088955    -1.42105236    -2.39540552
H      1.82534579    -2.41846101    -1.14643272
O      1.50901629     3.15818320     2.23267238
H      2.39481527     3.57183727     2.33501260
H      1.56728251     2.37274642     1.71243845
O     -1.14034915     0.27850361    -2.88152070
H     -0.54027709     0.02983175    -2.22728178
H     -1.96288294     0.14874711    -2.34580756
O      0.71360300     0.29300102    -0.43830559
H      1.01332624     0.89783965    -1.12586210
H      1.15401485    -0.60965187    -0.63728854
O     -1.10540895    -2.33356581    -0.58534188
H     -1.73302018    -3.04748740    -0.72987564
H     -1.63009754    -1.75711097    -0.04536352
O     -1.42514765    -2.19845111    -4.21955508
H     -0.47705810    -2.37821583    -4.47821737
H     -1.24025970    -1.37353700    -3.78810268
O      3.54771652    -0.73423563     0.77870898
H      3.61551044    -1.66808069     0.38962116
H      2.62192218    -0.63202740     1.10729866
O     -1.90886284     1.65008944    -0.21020769
H     -1.57804784     2.56875209    -0.20505589
H     -1.13203850     1.09522378    -0.42641248
O      1.67935246     0.51707149    -3.72902367
H      2.34644510     1.15350636    -3.43311560
H      1.11031277     0.85160241    -4.38913881
O     -0.49323572     2.66425730    -3.92213846
H     -0.84784453     1.82262930    -3.47620214
H     -1.24527468     2.86650051    -4.50088136
O     -1.48649940     2.73993908     2.60067677
H     -0.71278918     2.73883143     2.07040223
H     -1.24310356     2.88204999     3.52552095
O     -9.77300728    -8.73988486    -1.76307413
H     -9.79859951    -7.75404377    -1.71655938
H     -9.97678114    -8.81798108    -2.65132248
O      3.35075620     1.10969076    -1.56996883
H      3.95179359     1.75423753    -1.15378501
H      3.31979485     0.43108562    -0.88843532
O     -2.31509149     0.25138627     2.30503497
H     -2.18280185     0.95340924     1.66949943
H     -1.98282356     0.53719212     3.15399060
48
droplet n=16 rho=0.80 rep=4
O      0.57903903    -0.52634962     2.44306760
H      1.12565968    -0.91378888     3.18827137
H     -0.29873296    -0.16173082     2.74204864
O     -3.42717101     0.35063367    -0.94662642
H     -3.46921970    -0.23322740    -0.14096953
H     -3.14653236     1.16988074    -0.56139862
O      1.89270609    -2.52796682    -2.07167293
H      1.45391064    -2.40055091    -2.87273570
H      1.23532582    -2.86870405    -1.44339149
O      1.06138623     3.29230758     3.31383594
H      1.02762918     2.37874259     3.13819597
H      0.19262644     3.70000619     3.44739576
O     -1.41242900    -0.17316936    -3.00952616
H     -0.59334563    -0.19389812    -2.51984306
H     -2.17867950    -0.18761725    -2.36473006
O      1.13638958     0.06361669    -0.97542446
H      1.77785330     0.74633201    -1.26262893
H      1.34603972    -0.79439586    -1.32600667
O     -1.01071708    -2.55680071    -0.50422586
H     -1.92096535    -2.48858317    -0.84933250
H     -1.11349557    -2.18810382     0.43376116
O     -1.34519383    -2.94069729    -4.22443051
H     -1.15099261    -2.15596418    -3.69906252
H     -0.80916914    -3.64335531    -3.78388241
O      3.21674711    -0.49753579     0.86395307
H      3.55693095    -1.31500164     0.61875034
H      2.21326848    -0.44423267     0.82415782
O     -1.33065429     2.14896654    -0.10690988
H     -1.42687009     2.96725472    -0.64186627
H     -0.68948531     1.58185317    -0.51963660
O      2.72115760     0.04541219    -3.64095934
H      3.60096477     0.31655443    -3.53804989
H      2.26060064     0.88075157    -3.84165253
O     -0.49395737     2.27779281    -4.12417510
H     -0.88884608     1.48518960    -3.72480102
H     -0.64832720     2.15722668    -5.07304452
O     -1.95625291     2.80112218     2.68724681
H     -1.77555855     2.61011977     1.77032799
H     -2.50689706     3.61587768     2.74208009
O     -3.95505957    -2.82598572    -1.81238411
H     -4.20656134    -1.95423420    -2.06522041
H     -3.56171597    -3.26952485    -2.62588538
O      3.57369598     2.08213676    -0.89829711
H      3.96690930     2.56402861    -0.20822967
H      3.70455135     1.16339911    -0.59691161
O     -2.35165595    -0.12097921     1.99868819
H     -2.06024767     0.52725371     1.32993104
H     -2.78164900     0.42352539     2.66158332
48
droplet n=16 rho=0.60 rep=4
O      0.64899063    -0.58840719     2.79058758
H      1.19561128    -0.97584645     3.53579135
H     -0.22878135    -0.22378839     3.08956862
O     -3.74130069     0.38549999    -0.93533202
H     -3.78334938    -0.19836108    -0.12967514
H     -3.46066204     1.20474705    -0.55010423
O      2.06920368    -2.79786281    -2.21935348
H      1.63040824    -2.67044689    -3.02041626
H      1.41182342    -3.13860004    -1.59107204
O      1.16071455     3.59836392     3.71255070
H      1.12695750     2.68479894     3.53691073
H      0.29195475     4.00606254     3.84611052
O     -1.53002186    -0.20009653    -3.20773924
H     -0.71093848    -0.22082529    -2.71805615
H     -2.29627235    -0.21454442    -2.56294314
O      1.30209630     0.05581954    -1.02837568
H      1.94356002     0.73853486    -1.31558015
H      1.51174643    -0.80219300    -1.37895789
O     -1.12363757    -2.80778484    -0.46846874
H     -2.03388584    -2.73956730    -0.81357538
H     -1.22641606    -2.43908795     0.46951828
O     -1.43329515    -3.24222167    -4.55056937
H     -1.23909393    -2.45748856    -4.02520138
H     -0.89727046    -3.94487969    -4.11002126
O      3.54102145    -0.58156363     1.00795642
H      3.88120529    -1.39902948     0.76275370
H      2.53754282    -0.52826051     0.96816117
O     -1.42350774     2.36535110    -0.08284793
H     -1.51972354     3.18363927    -0.61780432
H     -0.78233877     1.79823772    -0.49557465
O      3.03187126     0.07878333    -3.94406069
H      3.91167843     0.34992558    -3.84115124
H      2.57131430     0.91412272    -4.14475389
O     -0.53931166     2.46808195    -4.49106224
H     -0.93420038     1.67547874    -4.09168815
H     -0.69368149     2.34751583    -5.43993165
O     -2.14276080     3.09564032     2.99539103
H     -1.96206645     2.90463790     2.07847221
H     -2.69340496     3.91039582     3.05022431
O     -4.32556289    -3.10435322    -1.96394576
H     -4.57706466    -2.23260169    -2.21678206
H     -3.93221928    -3.54789235    -2.77744703
O      3.97372756     2.26871406    -0.88882917
H      4.36694088     2.75060591    -0.19876173
H      4.10458293     1.34997641    -0.58744367
O     -2.57019645    -0.10146043     2.26625834
H     -2.27878818     0.54677249     1.59750119
H     -3.00018950     0.44304417     2.92915347
48
droplet n=16 rho=0.40 rep=4
O      0.75969739    -0.68662071     3.34057941
H      1.30631804    -1.07405996     4.08578318
H     -0.11807460    -0.32200190     3.63956045
O     -4.23844839     0.44068010    -0.91745730
H     -4.28049709    -0.14318097    -0.11180042
H     -3.95780974     1.25992716    -0.53222950
O      2.34853218    -3.22500541    -2.45307558
H      1.90973674    -3.09758950    -3.25413836
H      1.69115192    -3.56574265    -1.82479414
O      1.31791346     4.08273461     4.34356440
H      1.28415642     3.16916963     4.16792442
H      0.44915367     4.49043323     4.47712422
O     -1.71612658    -0.24271200    -3.52143510
H     -0.89704321    -0.26344076    -3.03175201
H     -2.48237708    -0.25715989    -2.87663900
O      1.56434695     0.04347962    -1.11217729
H      2.20581067     0.72619495    -1.39938176
H      1.77399708    -0.81453292    -1.46275950
O     -1.30234773    -3.20499719    -0.41187883
H     -2.21259599    -3.13677964    -0.75698547
H     -1.40512622    -2.83630030     0.52610819
O     -1.57272601    -3.71941998    -5.06672303
H     -1.37852478    -2.93468687    -4.54135504
H     -1.03670132    -4.42207799    -4.62617493
O      4.05422429    -0.71454771     1.23585891
H      4.39440813    -1.53201356     0.99065619
H      3.05074566    -0.66124460     1.19606367
O     -1.57045942     2.70780549    -0.04476702
H     -1.66667522     3.52609366    -0.57972341
H     -0.92929044     2.14069211    -0.45749374
O      3.52361271     0.13159716    -4.42375475
H      4.40341988     0.40273940    -4.32084530
H      3.06305575     0.96693654    -4.62444794
O     -0.61109025     2.76923723    -5.07170491
H     -1.00597896     1.97663402    -4.67233083
H     -0.76546008     2.64867110    -6.02057433
O     -2.43793181     3.56175042     3.48306602
H     -2.25723745     3.37074800     2.56614720
H     -2.98857596     4.37650592     3.53789930
O     -4.91192860    -3.54490299    -2.20381017
H     -5.16343036    -2.67315147    -2.45664647
H     -4.51858499    -3.98844213    -3.01731144
O      4.60682527     2.56399489    -0.87384502
H      5.00003859     3.04588674    -0.18377759
H      4.73768064     1.64525724    -0.57245953
O     -2.91606287    -0.07056962     2.68972002
H     -2.62465460     0.57766329     2.02096287
H     -3.34605592     0.47393497     3.35261515
48
droplet n=16 rho=0.20 rep=4
O      0.98731265    -0.88854962     4.47137344
H      1.53393330    -1.27598888     5.21657721
H      0.10954066    -0.52393082     4.77035448
O     -5.26059384     0.55413149    -0.88070652
H     -5.30264253    -0.02972958    -0.07504963
H     -4.97995519     1.37337855    -0.49547872
O      2.92283708    -4.10321901    -2.93361282
H      2.48404163    -3.97580309    -3.73467560
H      2.26545681    -4.44395624    -2.30533138
O      1.64111753     5.07861027     5.64094096
H      1.60736049     4.16504528     5.46530098
H      0.77235774     5.48630888     5.77450078
O     -2.09876155    -0.33033025    -4.16639995
H     -1.27967818    -0.35105901    -3.67671686
H     -2.86501205    -0.34477814    -3.52160386
O      2.10353944     0.01810851    -1.28447506
H      2.74500316     0.70082384    -1.57167953
H      2.31318958    -0.83990403    -1.63505727
O     -1.66977932    -4.02167357    -0.29552887
H     -2.58002759    -3.95345603    -0.64063550
H     -1.77255781    -3.65297668     0.64245815
O     -1.85939858    -4.70054908    -6.12794511
H     -1.66519736    -3.91581597    -5.60257712
H     -1.32337389    -5.40320709    -5.68739701
O      5.10937942    -0.98796560     1.70443092
H      5.44956326    -1.80543145     1.45922819
H      4.10590079    -0.93466248     1.66463567
O     -1.87259496     3.41189844     0.03352807
H     -1.96881076     4.23018661    -0.50142832
H     -1.23142598     2.84478506    -0.37919865
O      4.53464280     0.24018341    -5.41001517
H      5.41444997     0.51132566    -5.30710571
H      4.07408584     1.07552280    -5.61070836
O     -0.75866843     3.38841840    -6.26551766
H     -1.15355714     2.59581519    -5.86614358
H     -0.91303826     3.26785227    -7.21438708
O     -3.04480919     4.52008194     4.48573538
H     -2.86411484     4.32907953     3.56881656
H     -3.59545335     5.33483744     4.54056866
O     -6.11750802    -4.45068200    -2.69697610
H     -6.36900978    -3.57893048    -2.94981240
H     -5.72416441    -4.89422113    -3.51047737
O      5.90848662     3.17109809    -0.84303733
H      6.30169994     3.65298995    -0.15296989
H      6.03934199     2.25236044    -0.54165183
O     -3.62717104    -0.00705753     3.56036557
H     -3.33576277     0.64117539     2.89160842
H     -4.05716409     0.53744707     4.22326069
48
droplet-evaporation n=16 rep=4
O      0.52986275    -0.48272288     2.19875955
H      1.07648340    -0.87016214     2.94396332
H     -0.34790923    -0.11810407     2.49774059
O     -3.20633649     0.32612250    -0.95456642
H     -3.24838518    -0.25773857    -0.14890954
H     -2.92569784     1.14536956    -0.56933863
O      1.76862751    -2.33822877    -1.96785286
H      1.32983207    -2.21081286    -2.76891563
H      1.11124725    -2.67896601    -1.33957142
O      2.31598485     7.06706098     8.17117223
H      2.28222780     6.15349600     7.99553226
H      1.44722506     7.47475960     8.30473205
O     -1.32976071    -0.15423943    -2.87018150
H     -0.51067734    -0.17496819    -2.38049841
H     -2.09601121    -0.16868732    -2.22538540
O      1.01989704     0.06909812    -0.93819953
H      1.66136077     0.75181344    -1.22540400
H      1.22954718    -0.78891443    -1.28878174
O     -0.93133348    -2.38035778    -0.52936327
H     -1.84158175    -2.31214024    -0.87446991
H     -1.03411198    -2.01166089     0.40862375
O     -1.28325822    -2.72872435    -3.99515348
H     -1.08905700    -1.94399124    -3.46978549
H     -0.74723353    -3.43138237    -3.55460537
O      2.98878084    -0.43846386     0.76271809
H      3.32896468    -1.25592971     0.51751536
H      1.98530221    -0.38516074     0.72292284
O     -1.26537790     1.99684726    -0.12382553
H     -1.36159370     2.81513543    -0.65878192
H     -0.62420892     1.42973388    -0.53655226
O      2.50272455     0.02195212    -3.42787778
H      3.38253171     0.29309437    -3.32496832
H      2.04216759     0.85729151    -3.62857097
O     -0.46207310     2.14401872    -3.86625186
H     -0.85696182     1.35141551    -3.46687777
H     -0.61644293     2.02345259    -4.81512127
O     -1.82513705     2.59407466     2.47062010
H     -1.64444269     2.40307224     1.55370128
H     -2.37578121     3.40883015     2.52545338
O     -3.69459414    -2.63029217    -1.70583561
H     -3.94609591    -1.75854064    -1.95867191
H     -3.30125053    -3.07383130    -2.51933688
O      3.29247204     1.95097211    -0.90495311
H      3.68568537     2.43286397    -0.21488567
H      3.42332741     1.03223446    -0.60356761
O     -2.19802103    -0.13470100     1.81058522
H     -1.90661275     0.51353192     1.14182807
H     -2.62801408     0.40980360     2.47348035
48
droplet n=16 rho=0.80 rep=5
O      0.65029031    -0.32796973     2.72155008
H      0.18108496     0.13575847     3.39575191
H     -0.06055393    -0.92480381     2.42051396
O     -3.24012726     0.90077212    -1.39281122
H     -3.09233590     0.72525964    -0.41609718
H     -2.75711656     1.67544280    -1.55484193
O      1.30901420    -2.75717420    -1.93695681
H      1.96608740    -2.10473617    -2.33046689
H      0.87630864    -3.12200334    -2.74982915
O      0.77918189     3.06793074     3.96851695
H      1.18589885     2.34839160     3.41716501
H     -0.06137155     3.14464220     3.56321614
O     -1.60942676    -0.67363465    -3.19324060
H     -0.83698220    -0.64178621    -2.58361651
H     -2.39331425    -0.22895896    -2.73764939
O      0.54347945     0.27944601    -1.08377325
H      1.41552968     0.70786042    -1.07354533
H      0.65224150    -0.63499207    -0.96502952
O     -1.50793623    -2.34215244    -0.17628414
H     -0.77376164    -2.94160439    -0.26808589
H     -2.28069058    -2.73637671    -0.61350743
O     -0.69110426    -3.40089510    -3.97433947
H     -1.06033591    -2.70828160    -3.43318786
H     -1.29032749    -3.70436501    -4.60173822
O      3.15019715    -0.53085398     0.95765428
H      2.87645082    -1.35979114     0.43589632
H      2.35976024    -0.32121180     1.56964470
O     -0.88910439     2.90887938    -0.79618385
H     -0.13693838     3.48461632    -0.86919046
H     -0.47152726     2.03227587    -0.80100471
O      3.10795373     0.14899518    -2.99389780
H      3.33498265     0.84029376    -2.30726225
H      2.38700866     0.58753369    -3.44251483
O      0.10451354     2.39532770    -3.89196878
H     -0.05915219     1.52203952    -3.52140551
H     -0.76707883     2.75906653    -3.99549026
O     -1.99352685     2.55271258     2.85917629
H     -2.35912677     2.48954156     1.92163707
H     -2.74560146     2.36295034     3.37779181
O     -3.68431911    -2.90734885    -2.53543693
H     -3.73127123    -2.15320602    -3.16627078
H     -4.15725145    -3.66671594    -2.80210217
O      3.29645987     1.91467629    -0.78600680
H      3.20239964     2.65797626    -0.20362356
H      3.34913854     1.19861764    -0.13308548
O     -2.40436863    -0.15777887     1.18789236
H     -2.02166695    -0.89590671     0.64309344
H     -1.73781604     0.53983132     1.07645728
48
droplet n=16 rho=0.60 rep=5
O      0.70149065    -0.36992615     3.07887163
H      0.23228531     0.09380205     3.75307346
H     -0.00935358    -0.96676023     2.77783551
O     -3.51971844     1.00704486    -1.43475713
H     -3.37192708     0.83153237    -0.45804308
H     -3.03670774     1.78171554    -1.59678784
O      1.47362476    -3.02949772    -2.10146849
H      2.13069796    -2.37705969    -2.49497857
H      1.04091920    -3.39432685    -2.91434084
O      0.86838776     3.35064607     4.40672421
H      1.27510472     2.63110693     3.85537228
H      0.02783432     3.42735753     4.00142341
O     -1.74644600    -0.72992807    -3.40798136
H     -0.97400144    -0.69807964    -2.79835726
H     -2.53033349    -0.28525238    -2.95239015
O      0.65642155     0.28678188    -1.11762073
H      1.52847178     0.71519629    -1.10739281
H      0.76518360    -0.62765621    -0.99887700
O     -1.63565159    -2.61569103    -0.14087384
H     -0.90147700    -3.21514298    -0.23267559
H     -2.40840594    -3.00991530    -0.57809713
O     -0.76780663    -3.73459800    -4.30632057
H     -1.13703828    -3.04198450    -3.76516895
H     -1.36702986    -4.03806792    -4.93371931
O      3.45688118    -0.60953958     1.12796140
H      3.18313485    -1.43847673     0.60620344
H      2.66644427    -0.39989740     1.73995183
O     -0.91400284     3.18705932    -0.80802523
H     -0.16183683     3.76279627    -0.88103183
H     -0.49642571     2.31045581    -0.81284609
O      3.42951730     0.19741021    -3.21632658
H      3.65654623     0.88870879    -2.52969103
H      2.70857223     0.63594871    -3.66494361
O      0.10564298     2.61482179    -4.20380794
H     -0.05802275     1.74153361    -3.83324466
H     -0.76594939     2.97856062    -4.30732942
O     -2.20631412     2.79665508     3.20377628
H     -2.57191404     2.73348406     2.26623706
H     -2.95838873     2.60689285     3.72239180
O     -4.04721746    -3.20461011    -2.74981884
H     -4.09416958    -2.45046729    -3.38065270
H     -4.52014980    -3.96397720    -3.01648408
O      3.65217655     2.10380442    -0.75277167
H      3.55811632     2.84710439    -0.17038843
H      3.70485522     1.38774578    -0.09985035
O     -2.58580903    -0.17950077     1.35632913
H     -2.20310734    -0.91762861     0.81153021
H     -1.91925643     0.51810942     1.24489405
48
droplet n=16 rho=0.40 rep=5
O      0.78252132    -0.43632720     3.64437563
H      0.31331597     0.02740101     4.31857746
H      0.07167708    -1.03316128     3.34333951
O     -3.96220484     1.17523415    -1.50114154
H     -3.81441349     0.99972166    -0.52442749
H     -3.47919415     1.94990482    -1.66317225
O      1.73414062    -3.46048217    -2.36182786
H      2.39121382    -2.80804414    -2.75533794
H      1.30143505    -3.82531130    -3.17470021
O      1.00956670     3.79807681     5.10023950
H      1.41628366     3.07853767     4.54888756
H      0.16901326     3.87478827     4.69493870
O     -1.96329529    -0.81901914    -3.74783424
H     -1.19085073    -0.78717071    -3.13821014
H     -2.74718279    -0.37434345    -3.29224303
O      0.83516590     0.29839176    -1.17118839
H      1.70721613     0.72680617    -1.16096048
H      0.94392795    -0.61604632    -1.05244466
O     -1.83777639    -3.04859850    -0.08483282
H     -1.10360179    -3.64805045    -0.17663457
H     -2.61053073    -3.44282277    -0.52205611
O     -0.88919729    -4.26272267    -4.83172026
H     -1.25842894    -3.57010917    -4.29056864
H     -1.48842052    -4.56619259    -5.45911900
O      3.94224527    -0.73406893     1.39749275
H      3.66849894    -1.56300608     0.87573478
H      3.15180836    -0.52442675     2.00948317
O     -0.95340761     3.62731228    -0.82676561
H     -0.20124159     4.20304923    -0.89977222
H     -0.53583048     2.75070878    -0.83158647
O      3.93843003     0.27403276    -3.56834666
H      4.16545896     0.96533134    -2.88171111
H      3.21748496     0.71257127    -4.01696369
O      0.10743046     2.96219737    -4.69733061
H     -0.05623527     2.08890919    -4.32676734
H     -0.76416191     3.32593620    -4.80085209
O     -2.54307537     3.18272320     3.74914689
H     -2.90867529     3.11955218     2.81160766
H     -3.29514998     2.99296096     4.26776241
O     -4.62154739    -3.67506153    -3.08910380
H     -4.66849952    -2.92091871    -3.71993766
H     -5.09447973    -4.43442862    -3.35576904
O      4.21514065     2.40312227    -0.70017311
H      4.12108042     3.14642224    -0.11778986
H      4.26781931     1.68706362    -0.04725178
O     -2.87296011    -0.21387827     1.62290043
H     -2.49025843    -0.95200611     1.07810151
H     -2.20640752     0.48373192     1.51146535
48
droplet n=16 rho=0.20 rep=5
O      0.94912195    -0.57284905     4.80706296
H      0.47991660    -0.10912084     5.48126479
H      0.23827771    -1.16968313     4.50602684
O     -4.87196560     1.52103463    -1.63762918
H     -4.72417424     1.34552214    -0.66091514
H     -4.38895490     2.29570530    -1.79965990
O      2.26976634    -4.34659468    -2.89713184
H      2.92683954    -3.69415665    -3.29064192
H      1.83706077    -4.71142381    -3.71000419
O      1.29983337     4.71800322     6.52612056
H      1.70655033     3.99846408     5.97476863
H      0.45927993     4.79471468     6.12081976
O     -2.40914171    -1.00219213    -4.44657843
H     -1.63669715    -0.97034369    -3.83695433
H     -3.19302920    -0.55751644    -3.99098722
O      1.20266780     0.32226191    -1.28132457
H      2.07471802     0.75067632    -1.27109666
H      1.31142984    -0.59217617    -1.16258084
O     -2.25334894    -3.93866477     0.03038861
H     -1.51917434    -4.53811672    -0.06141314
H     -3.02610328    -4.33288904    -0.40683467
O     -1.13877888    -5.34855738    -5.91195235
H     -1.50801053    -4.65594388    -5.37080073
H     -1.73800211    -5.65202729    -6.53935110
O      4.94016337    -0.99010372     1.95165449
H      4.66641704    -1.81904087     1.42989653
H      4.14972646    -0.78046154     2.56364491
O     -1.03442458     4.53248103    -0.86529620
H     -0.28225856     5.10821797    -0.93830281
H     -0.61684745     3.65587752    -0.87011706
O      4.98476462     0.43157023    -4.29210687
H      5.21179354     1.12286882    -3.60547132
H      4.26381954     0.87010874    -4.74072391
O      0.11110555     3.67640840    -5.71202293
H     -0.05256017     2.80312022    -5.34145966
H     -0.76048682     4.04014723    -5.81554441
O     -3.23546313     3.97648684     4.87043957
H     -3.60106305     3.91331582     3.93290035
H     -3.98753774     3.78672460     5.38905510
O     -5.80238104    -4.64231891    -3.78668035
H     -5.84933316    -3.88817608    -4.41751421
H     -6.27531338    -5.40168600    -4.05334559
O      5.37260589     3.01852564    -0.59202943
H      5.27854567     3.76182561    -0.00964618
H      5.42528456     2.30246699     0.06089190
O     -3.46334838    -0.28455909     2.17097626
H     -3.08064670    -1.02268693     1.62617734
H     -2.79679579     0.41305110     2.05954118
48
droplet-evaporation n=16 rep=5
O      0.61429624    -0.29847419     2.47035148
H      0.14509089     0.16525402     3.14455331
H     -0.09654800    -0.89530827     2.16931536
O     -3.04357345     0.82606193    -1.36332306
H     -2.89578209     0.65054944    -0.38660902
H     -2.56056275     1.60073261    -1.52535378
O      1.19329226    -2.56572960    -1.82130438
H      1.85036547    -1.91329157    -2.21481446
H      0.76058670    -2.93055873    -2.63417673
O      1.95568855     6.68090554     9.57917399
H      2.36240551     5.96136640     9.02782205
H      1.11513511     6.75761700     9.17387319
O     -1.51310164    -0.63406012    -3.04227692
H     -0.74065708    -0.60221169    -2.43265282
H     -2.29698913    -0.18938443    -2.58668571
O      0.46408067     0.27428887    -1.05997833
H      1.33613089     0.70270327    -1.04975041
H      0.57284272    -0.64014922    -0.94123460
O     -1.41815178    -2.14985362    -0.20117773
H     -0.68397719    -2.74930557    -0.29297948
H     -2.19090613    -2.54407789    -0.63840102
O     -0.63718216    -3.16630051    -3.74095533
H     -1.00641381    -2.47368701    -3.19980371
H     -1.23640539    -3.46977042    -4.36835408
O      2.93459694    -0.47553767     0.83792763
H      2.66085061    -1.30447482     0.31616967
H      2.14416003    -0.26589549     1.44991806
O     -0.87160068     2.71331767    -0.78785932
H     -0.11943466     3.28905461    -0.86086593
H     -0.45402355     1.83671416    -0.79268018
O      2.88189314     0.11495921    -2.83752940
H      3.10892206     0.80625779    -2.15089385
H      2.16094807     0.55349772    -3.28614644
O      0.10371953     2.24102241    -3.67274451
H     -0.05994619     1.36773423    -3.30218123
H     -0.76787284     2.60476124    -3.77626599
O     -1.84393647     2.38121994     2.61692100
H     -2.20953639     2.31804893     1.67938178
H     -2.59601109     2.19145771     3.13553653
O     -3.42920000    -2.69837289    -2.38472551
H     -3.47615212    -1.94423007    -3.01555937
H     -3.90213234    -3.45773998    -2.65139075
O      3.04638950     1.78171839    -0.80937124
H      2.95232927     2.52501836    -0.22698800
H      3.09906817     1.06565974    -0.15644992
O     -2.27681525    -0.14250828     1.06948057
H     -1.89411356    -0.88063612     0.52468165
H     -1.61026265     0.55510191     0.95804549
48
droplet n=16 rho=0.80 rep=6
O      0.52376122    -0.06145730     2.55761724
H      0.25532056     0.89901801     2.58442962
H      0.73131671    -0.25973417     3.49250478
O     -3.14280136     1.74642233    -1.96951997
H     -3.31716430     1.55422808    -1.00008592
H     -2.79775101     2.63852080    -1.91741038
O      1.20809518    -2.38305477    -1.25053664
H      2.05730634    -1.97327058    -1.62452887
H      0.86996670    -2.98587404    -1.98432025
O      0.78023716     2.19081459     4.55302625
H      0.45574670     1.72132916     5.34348811
H     -0.02492485     2.54975800     4.21662941
O     -1.88901000    -0.42962052    -3.52092455
H     -1.14231477    -0.81955392    -2.96862371
H     -2.34927455     0.20206061    -2.84586009
O     -0.04546319     0.53858616    -0.75729148
H      0.58237367     1.19749376    -0.46890969
H      0.44537430    -0.31535742    -0.95773453
O     -1.84675554    -3.29049187    -0.15816498
H     -0.90650211    -2.98934496    -0.06096361
H     -2.17635445    -2.91635730    -0.95679602
O     -0.01882494    -3.59279015    -3.72408166
H     -0.86896066    -3.25976374    -3.88348761
H      0.09986669    -4.59275480    -3.70194814
O      2.85338360    -0.43424591     1.08191764
H      2.48006429    -1.17835541     0.66094414
H      2.21778139    -0.38261080     1.85661857
O     -0.96431239     3.66902506    -1.17695044
H     -0.55166007     4.47189091    -1.51746041
H     -0.70684078     2.92194711    -1.72390854
O      3.26627712    -0.31320083    -3.00357902
H      2.92593947     0.61159191    -3.19518610
H      3.66721848    -0.51553055    -3.84696792
O      0.24764045     1.88706966    -3.76239160
H     -0.56097038     1.31723869    -3.60617001
H      0.16669904     2.36299469    -4.60083161
O     -1.38772073     2.12382729     2.42158364
H     -1.56473576     2.74315323     1.72297810
H     -1.89988271     1.36094989     2.17914016
O     -3.42633281    -2.79059694    -2.96429170
H     -3.05989271    -2.01667495    -3.44217877
H     -4.28722835    -2.58708192    -2.61684897
O      2.99901155     2.16485521    -0.16714895
H      3.78762523     2.46191077     0.31220525
H      2.89796275     1.20560088     0.08564030
O     -2.43077389    -0.01976915     0.69736068
H     -2.27656042    -0.96907002     0.68679151
H     -1.73005535     0.34762586     0.10368426
48
droplet n=16 rho=0.60 rep=6
O      0.59509253    -0.05006400     2.92028925
H      0.32665186     0.91041131     2.94710163
H      0.80264802    -0.24834088     3.85517679
O     -3.43271310     1.93767519    -2.06046238
H     -3.60707604     1.74548094    -1.09102834
H     -3.08766275     2.82977365    -2.00835279
O      1.36748759    -2.63735832    -1.34055211
H      2.21669875    -2.22757413    -1.71454434
H      1.02935911    -3.24017760    -2.07433572
O      0.84152639     2.39960374     5.09949118
H      0.51703593     1.93011830     5.88995303
H      0.03636438     2.75854714     4.76309433
O     -2.04885425    -0.47273986    -3.76109927
H     -1.30215902    -0.86267327    -3.20879843
H     -2.50911880     0.15894127    -3.08603481
O      0.00815124     0.57825648    -0.75755238
H      0.63598810     1.23716408    -0.46917058
H      0.49898873    -0.27568710    -0.95799543
O     -1.99147030    -3.60699226    -0.12460964
H     -1.05121687    -3.30584535    -0.02740828
H     -2.32106922    -3.23285769    -0.92324069
O     -0.02459637    -3.98474265    -4.03048274
H     -0.87473209    -3.65171624    -4.18988870
H      0.09409526    -4.98470730    -4.00834923
O      3.12736951    -0.50917155     1.27567574
H      2.75405020    -1.25328106     0.85470224
H      2.49176730    -0.45753645     2.05037666
O     -1.01822089     4.03216483    -1.25216925
H     -0.60556858     4.83503067    -1.59267922
H     -0.76074928     3.28508688    -1.79912735
O      3.61769750    -0.32847663    -3.26758334
H      3.27735985     0.59631610    -3.45919042
H      4.01863886    -0.53080636    -4.11097224
O      0.26338261     2.06584728    -4.09092986
H     -0.54522821     1.49601631    -3.93470826
H      0.18244121     2.54177231    -4.92936987
O     -1.52984319     2.32476729     2.70673248
H     -1.70685822     2.94409323     2.00812695
H     -2.04200517     1.56188989     2.46428900
O     -3.76709370    -3.04665014    -3.19399663
H     -3.40065360    -2.27272815    -3.67188369
H     -4.62798923    -2.84313512    -2.84655390
O      3.34456664     2.35252505    -0.08640503
H      4.13318032     2.64958062     0.39294917
H      3.24351784     1.39327072     0.16638421
O     -2.62607078    -0.04927156     0.82027846
H     -2.47185731    -0.99857243     0.80970929
H     -1.92535225     0.31812345     0.22660205
48
droplet n=16 rho=0.40 rep=6
O      0.70798284    -0.03203275     3.49426098
H      0.43954217     0.92844256     3.52107336
H      0.91553833    -0.23030963     4.42914852
O     -3.89153301     2.24035566    -2.20438960
H     -4.06589595     2.04816140    -1.23495556
H     -3.54648266     3.13245412    -2.15228001
O      1.61974510    -3.03982404    -1.48301235
H      2.46895626    -2.63003985    -1.85700458
H      1.28161662    -3.64264332    -2.21679596
O      0.93852391     2.73003747     5.96433714
H      0.61403345     2.26055204     6.75479899
H      0.13336189     3.08898088     5.62794029
O     -2.30182685    -0.54098137    -4.14120442
H     -1.55513162    -0.93091478    -3.58890359
H     -2.76209140     0.09069976    -3.46613997
O      0.09300247     0.64103950    -0.75796527
H      0.72083933     1.29994710    -0.46958347
H      0.58383996    -0.21290408    -0.95840832
O     -2.22049869    -4.10789190    -0.07150433
H     -1.28024526    -3.80674499     0.02569704
H     -2.55009761    -3.73375733    -0.87013537
O     -0.03373035    -4.60505425    -4.51539903
H     -0.88386607    -4.27202784    -4.67480498
H      0.08496129    -5.60501890    -4.49326552
O      3.56098491    -0.62775033     1.58232105
H      3.18766560    -1.37185984     1.16134755
H      2.92538270    -0.57611522     2.35702197
O     -1.10353754     4.60687684    -1.37121200
H     -0.69088522     5.40974269    -1.71172197
H     -0.84606593     3.85979889    -1.91817011
O      4.17386219    -0.35265241    -3.68540168
H      3.83352454     0.57214032    -3.87700876
H      4.57480355    -0.55498214    -4.52879058
O      0.28829646     2.34878419    -4.61088085
H     -0.52031436     1.77895323    -4.45465926
H      0.20735506     2.82470922    -5.44932086
O     -1.75476893     2.64277882     3.15801456
H     -1.93178396     3.26210476     2.45940902
H     -2.26693091     1.87990141     2.91557108
O     -4.30638846    -3.45188489    -3.55753209
H     -3.93994836    -2.67796290    -4.03541915
H     -5.16728400    -3.24836987    -3.21008936
O      3.89144881     2.64953497     0.04138185
H      4.68006249     2.94659053     0.52073606
H      3.79040000     1.69028064     0.29417110
O     -2.93515142    -0.09596265     1.01481052
H     -2.78093794    -1.04526351     1.00424135
H     -2.23443288     0.27143237     0.42113410
48
droplet n=16 rho=0.20 rep=6
O      0.94008753     0.00503985     4.67435815
H      0.67164687     0.96551516     4.70117053
H      1.14764303    -0.19323702     5.60924569
O     -4.83487577     2.86267265    -2.50030679
H     -5.00923872     2.67047840    -1.53087275
H     -4.48982543     3.75477112    -2.44819720
O      2.13839149    -3.86730147    -1.77591339
H      2.98760265    -3.45751728    -2.14990562
H      1.80026301    -4.47012075    -2.50969700
O      1.13795270     3.40941573     7.74247743
H      0.81346224     2.93993030     8.53293928
H      0.33279069     3.76835914     7.40608058
O     -2.82194348    -0.68128726    -4.92270810
H     -2.07524825    -1.07122066    -4.37040726
H     -3.28220803    -0.04960613    -4.24764364
O      0.26745827     0.77012263    -0.75881419
H      0.89529513     1.42903023    -0.47043239
H      0.75829576    -0.08382095    -0.95925723
O     -2.69138556    -5.13775140     0.03768125
H     -1.75113213    -4.83660448     0.13488261
H     -3.02098447    -4.76361682    -0.76094980
O     -0.05250998    -5.88042709    -5.51239645
H     -0.90264570    -5.54740068    -5.67180240
H      0.06618165    -6.88039175    -5.49026294
O      4.45250670    -0.87155062     2.21278983
H      4.07918738    -1.61566013     1.79181634
H      3.81690449    -0.81991552     2.98749076
O     -1.27895024     5.78849604    -1.61596624
H     -0.86629792     6.59136189    -1.95647621
H     -1.02147863     5.04141810    -2.16292434
O      5.31734773    -0.40235830    -4.54444439
H      4.97701007     0.52243444    -4.73605148
H      5.71828908    -0.60468803    -5.38783330
O      0.33951983     2.93050806    -5.67991032
H     -0.46909100     2.36067709    -5.52368872
H      0.25857842     3.40643309    -6.51835033
O     -2.21722069     3.29661676     4.08585937
H     -2.39423572     3.91594271     3.38725383
H     -2.72938267     2.53373936     3.84341589
O     -5.41518910    -4.28505549    -4.30496813
H     -5.04874900    -3.51113351    -4.78285520
H     -6.27608464    -4.08154048    -3.95752541
O      5.01584929     3.26019320     0.30411420
H      5.80446297     3.55724876     0.78346841
H      4.91480049     2.30093887     0.55690345
O     -3.57062729    -0.19196043     1.41477226
H     -3.41641381    -1.14126129     1.40420308
H     -2.86990875     0.17543458     0.82109584
48
droplet-evaporation n=16 rep=6
O      0.47361500    -0.06946684     2.30265725
H      0.20517434     0.89100847     2.32946963
H      0.68117049    -0.26774371     3.23754478
O     -2.93899216     1.61197075    -1.90558706
H     -3.11335510     1.41977649    -0.93615302
H     -2.59394181     2.50406921    -1.85347747
O      1.09604163    -2.20427827    -1.18725537
H      1.94525279    -1.79449408    -1.56124760
H      0.75791315    -2.80709755    -1.92103897
O      1.52507661     4.38175285    10.44812243
H      1.20058615     3.91226741    11.23858428
H      0.71991460     4.74069625    10.11172558
O     -1.77663881    -0.39930743    -3.35208068
H     -1.02994357    -0.78924084    -2.79977984
H     -2.23690335     0.23237370    -2.67701622
O     -0.08315437     0.51069775    -0.75710808
H      0.54468249     1.16960535    -0.46872628
H      0.40768312    -0.34324583    -0.95755113
O     -1.74502043    -3.06799073    -0.18175452
H     -0.80476700    -2.76684382    -0.08455316
H     -2.07461935    -2.69385616    -0.98038557
O     -0.01476760    -3.31724585    -3.50868036
H     -0.86490332    -2.98421944    -3.66808631
H      0.10392403    -4.31721050    -3.48654685
O      2.66077032    -0.38157285     0.94570486
H      2.28745100    -1.12568236     0.52473136
H      2.02516811    -0.32993775     1.72040579
O     -0.92641447     3.41373623    -1.12407128
H     -0.51376216     4.21660208    -1.46458125
H     -0.66894286     2.66665828    -1.67102938
O      3.01922707    -0.30246187    -2.81798284
H      2.67888942     0.62233087    -3.00958992
H      3.42016843    -0.50479160    -3.66137174
O      0.23657364     1.76138822    -3.53142779
H     -0.57203718     1.19155725    -3.37520619
H      0.15563223     2.23731324    -4.36986780
O     -1.28780803     1.98256560     2.22112277
H     -1.46482306     2.60189154     1.52251723
H     -1.79997001     1.21968820     1.97867929
O     -3.18677643    -2.61059043    -2.80280814
H     -2.82033634    -1.83666844    -3.28069521
H     -4.04767197    -2.40707541    -2.45536541
O      2.75608482     2.03292250    -0.22391227
H      3.54469851     2.32997806     0.25544193
H      2.65503602     1.07366817     0.02887697
O     -2.29347933     0.00097117     0.61094895
H     -2.13926585    -0.94832970     0.60037977
H     -1.59276079     0.36836618     0.01727253
48
droplet n=16 rho=0.80 rep=7
O      0.43342902    -0.47257005     2.86146488
H      0.22023163     0.43937605     2.57727475
H      0.66682664    -0.54148097     3.75782273
O     -3.62300956     2.12215253    -2.04480146
H     -3.75701447     1.48748137    -1.34620890
H     -2.79564241     2.60404408    -1.84775931
O      1.75071766    -2.51169269    -1.01690431
H      2.28758443    -1.93128279    -1.66331394
H      1.02204107    -2.83662071    -1.60758370
O      0.35453531     1.89632122     4.92053039
H      0.25089197     2.67580530     5.48915104
H     -0.16019464     2.16567316     4.15023468
O     -1.72214629    -0.15566667    -2.82505149
H     -1.17292067     0.19867234    -2.01220371
H     -2.48700095     0.36545148    -2.74237731
O      0.40812392     0.55447369    -0.92773149
H      1.06714618     1.20894540    -0.63700246
H      0.65948660    -0.24790157    -0.63067704
O     -2.22225796    -3.12540697     0.43986587
H     -1.32938119    -3.11802891     0.73902335
H     -2.17644968    -3.60670272    -0.41252762
O     -0.06837157    -3.35433197    -3.44950158
H     -0.64507029    -2.67171715    -3.93759239
H     -0.71494810    -4.03798656    -3.46656065
O      2.93624804    -0.78099913     1.22697364
H      2.78026248    -1.40229853     0.40631047
H      2.10087015    -0.88249091     1.65677128
O     -0.74734631     4.26594077    -1.56128378
H     -0.97774785     5.22257303    -1.59409888
H      0.19591488     4.07871797    -1.69201604
O      2.89753889    -0.49448044    -2.77819437
H      3.68055578    -0.19022666    -3.13222507
H      2.23314100    -0.16983823    -3.44715392
O      1.02783901     2.08621894    -4.21739619
H      0.71238299     1.82021042    -3.32780222
H      0.30421666     1.83077913    -4.83055599
O     -1.16471267     2.02033346     1.09553669
H     -1.22969288     2.84444471     0.58673903
H     -1.20104129     1.30295289     0.46536850
O     -2.70930052    -2.67074449    -3.64986840
H     -2.35719034    -1.85776173    -3.25151973
H     -3.52670041    -2.48221386    -4.13653979
O      2.48360648     2.03541183     0.08976479
H      2.02041127     2.34503425     0.90542944
H      3.12822185     1.31457948     0.11393888
O     -3.25942622    -0.47491197     0.53576311
H     -3.46867249    -0.22657482     1.43908981
H     -3.24315553    -1.40986101     0.43193905
48
droplet n=16 rho=0.60 rep=7
O      0.50107953    -0.50281855     3.24189837
H      0.28788213     0.40912754     2.95770824
H      0.73447714    -0.57172947     4.13825621
O     -3.94102595     2.31963611    -2.14863687
H     -4.07503086     1.68496495    -1.45004432
H     -3.11365881     2.80152766    -1.95159472
O      1.94383087    -2.76687435    -1.08883716
H      2.48069764    -2.18646444    -1.73524679
H      1.21515428    -3.09180237    -1.67951655
O      0.39282323     2.11138776     5.48089083
H      0.28917990     2.89087184     6.04951149
H     -0.12190672     2.38073970     4.71059513
O     -1.87934957    -0.15293357    -3.00741693
H     -1.33012395     0.20140544    -2.19456915
H     -2.64420423     0.36818458    -2.92474275
O      0.50309111     0.59434587    -0.92946992
H      1.16211337     1.24881758    -0.63874088
H      0.75445378    -0.20802939    -0.63241546
O     -2.39106936    -3.46682383     0.53748743
H     -1.49819259    -3.45944577     0.83664491
H     -2.34526109    -3.94811958    -0.31490606
O     -0.09293895    -3.70292453    -3.74170219
H     -0.66963767    -3.02030971    -4.22979300
H     -0.73951547    -4.38657912    -3.75876126
O      3.22185289    -0.89481819     1.40925875
H      3.06586733    -1.51611760     0.58859558
H      2.38647500    -0.99630997     1.83905639
O     -0.77529492     4.71011749    -1.65198969
H     -1.00569646     5.66674975    -1.68480478
H      0.16796628     4.52289469    -1.78272195
O      3.21648507    -0.53411789    -3.02020524
H      3.99950195    -0.22986411    -3.37423593
H      2.55208717    -0.20947568    -3.68916478
O      1.11977625     2.26771817    -4.56065940
H      0.80432023     2.00170966    -3.67106543
H      0.39615391     2.01227836    -5.17381920
O     -1.26197933     2.21627563     1.23949679
H     -1.32695954     3.04038689     0.73069913
H     -1.29830795     1.49889506     0.60932860
O     -2.97422887    -2.91690604    -3.94825091
H     -2.62211869    -2.10392327    -3.54990224
H     -3.79162876    -2.72837540    -4.43492230
O      2.76300032     2.21549594     0.19888547
H      2.29980511     2.52511836     1.01455012
H      3.40761569     1.49466359     0.22305955
O     -3.57058510    -0.55671196     0.68841696
H     -3.77983137    -0.30837481     1.59174367
H     -3.55431440    -1.49166100     0.58459290
48
droplet n=16 rho=0.40 rep=7
O      0.60814453    -0.55069041     3.84397976
H      0.39494713     0.36125568     3.55978963
H      0.84154214    -0.61960133     4.74033760
O     -4.44432484     2.63217744    -2.31296881
H     -4.57832975     1.99750628    -1.61437625
H     -3.61695769     3.11406899    -2.11592665
O      2.24945558    -3.17072978    -1.20267948
H      2.78632235    -2.59031987    -1.84908911
H      1.52077899    -3.49565779    -1.79335887
O      0.45341844     2.45175622     6.36772811
H      0.34977511     3.23124030     6.93634876
H     -0.06131151     2.72110816     5.59743240
O     -2.12814252    -0.14860812    -3.29603201
H     -1.57891690     0.20573089    -2.48318423
H     -2.89299718     0.37251003    -3.21335783
O      0.65338801     0.65744834    -0.93222118
H      1.31241027     1.31192005    -0.64149214
H      0.90475068    -0.14492692    -0.63516672
O     -2.65823356    -4.00715675     0.69198520
H     -1.76535679    -3.99977869     0.99114267
H     -2.61242528    -4.48845250    -0.16040829
O     -0.13181976    -4.25461386    -4.20414452
H     -0.70851848    -3.57199905    -4.69223534
H     -0.77839628    -4.93826845    -4.22120360
O      3.67385665    -1.07495044     1.69774669
H      3.51787109    -1.69624985     0.87708352
H      2.83847877    -1.17644223     2.12754432
O     -0.81952692     5.41308016    -1.79554261
H     -1.04992846     6.36971242    -1.82835770
H      0.12373428     5.22585735    -1.92627487
O      3.72125546    -0.59684887    -3.40321631
H      4.50427234    -0.29259509    -3.75724700
H      3.05685756    -0.27220666    -4.07217585
O      1.26527791     2.55496237    -5.10391439
H      0.94982189     2.28895385    -4.21432042
H      0.54165557     2.29952256    -5.71707419
O     -1.41591542     2.52637751     1.46733083
H     -1.48089563     3.35048877     0.95853317
H     -1.45224404     1.80899694     0.83716264
O     -3.39350960    -3.30648605    -4.42047684
H     -3.04139942    -2.49350329    -4.02212817
H     -4.21090948    -3.11795542    -4.90714824
O      3.20517441     2.50050052     0.37158196
H      2.74197920     2.81012294     1.18724661
H      3.84978978     1.77966817     0.39575605
O     -4.06303115    -0.68617021     0.93000990
H     -4.27227743    -0.43783305     1.83333660
H     -4.04676046    -1.62111924     0.82618584
48
droplet n=16 rho=0.20 rep=7
O      0.82827227    -0.64911590     5.08187093
H      0.61507487     0.26283019     4.79768080
H      1.06166988    -0.71802682     5.97822877
O     -5.47911725     3.27476856    -2.65083849
H     -5.61312216     2.64009740    -1.95224593
H     -4.65175011     3.75666012    -2.45379633
O      2.87782599    -4.00106447    -1.43674152
H      3.41469276    -3.42065456    -2.08315115
H      2.14914940    -4.32599248    -2.02742092
O      0.57800339     3.15156046     8.19108298
H      0.47436005     3.93104455     8.75970364
H      0.06327343     3.42091241     7.42078727
O     -2.63966571    -0.13971491    -3.88943028
H     -2.09044009     0.21462410    -3.07658250
H     -3.40452037     0.38140324    -3.80675610
O      0.96240140     0.78718827    -0.93787782
H      1.62142366     1.44165998    -0.64714879
H      1.21376407    -0.01518700    -0.64082337
O     -3.20752839    -5.11809185     1.00963565
H     -2.31465162    -5.11071379     1.30879312
H     -3.16172012    -5.59938761     0.15724216
O     -0.21175946    -5.38889797    -5.15493505
H     -0.78845818    -4.70628316    -5.64302587
H     -0.85833598    -6.07255256    -5.17199413
O      4.60318528    -1.44530590     2.29088355
H      4.44719972    -2.06660530     1.47022039
H      3.76780739    -1.54679768     2.72068119
O     -0.91046878     6.85838522    -2.09069024
H     -1.14087032     7.81501748    -2.12350533
H      0.03279241     6.67116241    -2.22142250
O      4.75907329    -0.72582501    -4.19069461
H      5.54209018    -0.42157123    -4.54472530
H      4.09467540    -0.40118280    -4.85965415
O      1.56443218     3.14554208    -6.22085733
H      1.24897616     2.87953356    -5.33126336
H      0.84080984     2.89010227    -6.83401713
O     -1.73241106     3.16395307     1.93576209
H     -1.79739126     3.98806432     1.42696443
H     -1.76873967     2.44657250     1.30559390
O     -4.25555902    -4.10747023    -5.39138264
H     -3.90344884    -3.29448747    -4.99303397
H     -5.07295890    -3.91893960    -5.87805404
O      4.11429304     3.08647555     0.72664935
H      3.65109782     3.39609797     1.54231400
H      4.75890841     2.36564320     0.75082344
O     -5.07550993    -0.95233890     1.42672973
H     -5.28475620    -0.70400175     2.33005644
H     -5.05923923    -1.88728794     1.32290567
48
droplet-evaporation n=16 rep=7
O      0.38587043    -0.45130522     2.59401850
H      0.17267303     0.46064087     2.30982837
H      0.61926804    -0.52021614     3.49037634
O     -3.39944266     1.98332071    -1.97180472
H     -3.53344757     1.34864955    -1.27321216
H     -2.57207551     2.46521227    -1.77476256
O      1.61495823    -2.33229888    -0.96633520
H      2.15182500    -1.75188897    -1.61274483
H      0.88628164    -2.65722690    -1.55701460
O      0.75728650     4.05098931    10.75449860
H      0.65364316     4.83047339    11.32311926
H      0.24255655     4.32034125     9.98420290
O     -1.61163171    -0.15758805    -2.69684779
H     -1.06240609     0.19675096    -1.88400001
H     -2.37648637     0.36353010    -2.61417361
O      0.34136158     0.52644338    -0.92650937
H      1.00038384     1.18091509    -0.63578034
H      0.59272425    -0.27593188    -0.62945492
O     -2.10358281    -2.88538944     0.37123749
H     -1.21070604    -2.87801138     0.67039497
H     -2.05777453    -3.36668519    -0.48115600
O     -0.05110060    -3.10926989    -3.24408328
H     -0.62779932    -2.42665507    -3.73217410
H     -0.69767712    -3.79292447    -3.26114236
O      2.73546659    -0.70098383     1.09882642
H      2.57948103    -1.32228324     0.27816325
H      1.90008870    -0.80247561     1.52862406
O     -0.72769832     3.95368261    -1.49751714
H     -0.95809986     4.91031487    -1.53033223
H      0.21556287     3.76645981    -1.62824940
O      2.67331835    -0.46661515    -2.60805969
H      3.45633523    -0.16236137    -2.96209038
H      2.00892045    -0.14197294    -3.27701923
O      0.96320673     1.95862419    -3.97608066
H      0.64775071     1.69261567    -3.08648670
H      0.23958438     1.70318438    -4.58924047
O     -1.09633379     1.88258526     0.99433212
H     -1.16131400     2.70669651     0.48553446
H     -1.13266241     1.16520469     0.36416393
O     -2.52305475    -2.49769186    -3.44010420
H     -2.17094456    -1.68470910    -3.04175553
H     -3.34045463    -2.30916122    -3.92677559
O      2.28719140     1.90881193     0.01305248
H      1.82399619     2.21843435     0.82871713
H      2.93180677     1.18797958     0.03722657
O     -3.04068018    -0.41740623     0.42844679
H     -3.24992645    -0.16906907     1.33177349
H     -3.02440949    -1.35235526     0.32462273
60
droplet n=20 rho=0.80 rep=0
O     -0.85991768     1.97427192    -0.35016000
H     -0.80915604     2.94699564    -0.09830718
H     -0.33844893     1.96375070    -1.16732351
O      1.47248282     1.62574642     2.15381782
H      1.52289136     0.83838144     1.62574537
H      2.20773995     2.09753694     1.80319621
O     -3.75447355     1.45624418    -2.51403188
H     -3.85860276     1.66455865    -1.52715777
H     -3.17927200     2.12569622    -2.99332646
O     -0.96907736    -1.33487059    -0.24196819
H     -1.54189828    -1.46148875    -1.06864146
H     -1.07498824    -0.40927086    -0.04707218
O      2.69444168     2.62250654    -2.30438983
H      2.16595992     2.96373112    -1.53353988
H      3.25816301     3.33609879    -2.58808974
O      3.45333195     2.87842967     0.36180234
H      3.65473542     1.92964736     0.03477573
H      4.27761462     3.28365909     0.05241879
O     -2.33752302    -2.11319504     2.20641292
H     -1.94087270    -2.85111376     2.60421243
H     -1.81535407    -2.01227923     1.36713695
O     -3.78506071     1.73744001     0.54733474
H     -4.18369872     1.71463648     1.43904858
H     -2.90197832     1.40565633     0.98440695
O      0.29408675    -2.38919369     4.44295361
H     -0.38393370    -2.37923257     5.09515639
H      0.88972739    -1.73240249     4.84584081
O      1.19410530     5.24992911    -1.24899998
H      2.05406498     5.39630725    -0.87192419
H      0.52758600     5.14676666    -0.52051935
O     -4.16152567     0.60814211     3.17035573
H     -3.78217561     0.76636951     4.01309699
H     -3.61338138    -0.05980192     2.76292602
O     -2.56559138    -0.99726270    -2.64424654
H     -3.15766173    -1.78853078    -2.65614642
H     -3.23146309    -0.24023404    -2.60210789
O     -0.43558040     3.50143056     3.26884235
H     -0.86267288     2.84210004     3.76524472
H      0.40687126     2.94918081     3.00206501
O     -1.20013089     0.87699511     4.44368972
H     -0.74555527     0.86052599     5.28879375
H     -0.71260223     0.27657030     3.81806260
O      1.73074069    -2.55414532    -1.03167441
H      1.67051690    -3.18178870    -1.71380634
H      0.87961797    -2.16274968    -0.77174636
O      3.29964922     0.00556009    -1.02620856
H      2.57936230    -0.61681848    -0.87365494
H      3.00609188     0.52118334    -1.74351875
O     -3.94783427     4.67768877     0.88280314
H     -4.55759945     5.19383146     0.34964057
H     -4.08080150     3.71985401     0.65189095
O     -0.79329631     4.74626906     0.79409328
H     -1.71390856     4.90691407     0.67494976
H     -0.68948309     4.24832287     1.65849227
O      2.66219800     0.51309934     4.90348019
H      3.23693925     0.05617806     4.19742725
H      2.36949784     1.38031016     4.70831988
O      3.87097670    -1.12382799     2.91922360
H      4.53186039    -1.40497724     3.53779042
H      3.48023445    -1.97039428     2.59555367
60
droplet n=20 rho=0.60 rep=0
O     -0.90949484     2.09751766    -0.49969492
H     -0.85873321     3.07024138    -0.24784211
H     -0.38802609     2.08699644    -1.31685844
O      1.66480429     1.67104953     2.24577605
H      1.71521284     0.88368455     1.71770360
H      2.40006142     2.14284005     1.89515444
O     -4.09875940     1.52452175    -2.84535135
H     -4.20288861     1.73283622    -1.85847724
H     -3.52355786     2.19397379    -3.32464593
O     -1.07160724    -1.55014060    -0.38284421
H     -1.64442815    -1.67675875    -1.20951749
H     -1.17751811    -0.62454087    -0.18794821
O      2.98456915     2.81409916    -2.61529577
H      2.45608739     3.15532374    -1.84444582
H      3.54829048     3.52769141    -2.89899568
O      3.85306295     3.04215775     0.28153582
H      4.05446642     2.09337544    -0.04549079
H      4.67734562     3.44738717    -0.02784773
O     -2.52418277    -2.45497115     2.31833199
H     -2.12753246    -3.19288987     2.71613150
H     -2.00201382    -2.35405534     1.47905602
O     -4.13197633     1.79267545     0.55166801
H     -4.53061434     1.76987192     1.44338185
H     -3.24889394     1.46089178     0.98874022
O      0.33869087    -2.71500928     4.83016957
H     -0.33932958    -2.70504816     5.48237234
H      0.93433150    -2.05821808     5.23305676
O      1.33854252     5.67201522    -1.43294297
H      2.19850221     5.81839336    -1.05586717
H      0.67202323     5.56885277    -0.70446234
O     -4.53146643     0.54451808     3.40870236
H     -4.15211637     0.70274548     4.25144362
H     -3.98332214    -0.12342595     3.00127265
O     -2.84822932    -1.20650749    -3.00468470
H     -3.44029967    -1.99777557    -3.01658458
H     -3.51410103    -0.44947883    -2.96254605
O     -0.44771387     3.70544832     3.51020065
H     -0.87480635     3.04611780     4.00660302
H      0.39473779     3.15319857     3.24342331
O     -1.27153959     0.83683357     4.80294705
H     -0.81696397     0.82036445     5.64805108
H     -0.78401093     0.23640876     4.17731994
O      1.89212339    -2.92685541    -1.24499773
H      1.83189960    -3.55449879    -1.92712966
H      1.04100067    -2.53545976    -0.98506968
O      3.61549213    -0.10519092    -1.24376406
H      2.89520520    -0.72756949    -1.09121044
H      3.32193479     0.41043234    -1.96107425
O     -4.35230049     5.02591580     0.85068857
H     -4.96206567     5.54205850     0.31752600
H     -4.48526772     4.06808105     0.61977638
O     -0.88276696     5.10490023     0.80368495
H     -1.80337921     5.26554524     0.68454143
H     -0.77895374     4.60695404     1.66808394
O      2.95735996     0.47077386     5.27141563
H      3.53210120     0.01385258     4.56536269
H      2.66465979     1.33798468     5.07625532
O      4.28739386    -1.38249398     3.12758512
H      4.94827755    -1.66364322     3.74615195
H      3.89665161    -2.22906027     2.80391519
60
droplet n=20 rho=0.40 rep=0
O     -0.98795661     2.29256875    -0.73635179
H     -0.93719498     3.26529248    -0.48449897
H     -0.46648787     2.28204754    -1.55351531
O      1.96917598     1.74274710     2.39131092
H      2.01958452     0.95538212     1.86323848
H      2.70443310     2.21453762     2.04068932
O     -4.64363285     1.63257914    -3.36970394
H     -4.74776206     1.84089361    -2.38282984
H     -4.06843131     2.30203118    -3.84899853
O     -1.23387300    -1.89083107    -0.60579734
H     -1.80669391    -2.01744923    -1.43247061
H     -1.33978387    -0.96523134    -0.41090134
O      3.44373049     3.11731734    -3.10734153
H      2.91524873     3.45854192    -2.33649157
H      4.00745182     3.83090959    -3.39104144
O      4.48568495     3.30127696     0.15450447
H      4.68708843     2.35249466    -0.17252215
H      5.30996763     3.70650638    -0.15487909
O     -2.81959410    -2.99587262     2.49545728
H     -2.42294379    -3.73379135     2.89325679
H     -2.29742516    -2.89495682     1.65618131
O     -4.68101171     1.88009212     0.55852592
H     -5.07964971     1.85728859     1.45023977
H     -3.79792931     1.54830845     0.99559813
O      0.40928221    -3.23065132     5.44298502
H     -0.26873825    -3.22069021     6.09518780
H      1.00492284    -2.57386012     5.84587221
O      1.56713167     6.34001686    -1.72405470
H      2.42709136     6.48639500    -1.34697890
H      0.90061238     6.23685441    -0.99557407
O     -5.11694183     0.44382547     3.78591435
H     -4.73759177     0.60205287     4.62865560
H     -4.56879753    -0.22411856     3.37848463
O     -3.29553759    -1.53766234    -3.57512110
H     -3.88760794    -2.32893042    -3.58702098
H     -3.96140930    -0.78063368    -3.53298245
O     -0.46691652     4.02833078     3.89217896
H     -0.89400900     3.36900025     4.38858133
H      0.37553514     3.47608103     3.62540162
O     -1.38455239     0.77327313     5.37151465
H     -0.92997677     0.75680402     6.21661868
H     -0.89702373     0.17284833     4.74588754
O      2.14753077    -3.51671360    -1.58260732
H      2.08730699    -4.14435698    -2.26473926
H      1.29640806    -3.12531795    -1.32267928
O      4.11535122    -0.28046760    -1.58807160
H      3.39506430    -0.90284617    -1.43551798
H      3.82179388     0.23515565    -2.30538179
O     -4.99241656     5.57702663     0.79986343
H     -5.60218174     6.09316933     0.26670086
H     -5.12538379     4.61919188     0.56895125
O     -1.02436494     5.67247685     0.81886491
H     -1.94497719     5.83312186     0.69972139
H     -0.92055172     5.17453066     1.68326390
O      3.42448897     0.40378874     5.85371736
H      3.99923022    -0.05313254     5.14766442
H      3.13178881     1.27099955     5.65855705
O      4.94642371    -1.79186377     3.45734211
H      5.60730740    -2.07301301     4.07590893
H      4.55568146    -2.63843006     3.13367217
60
droplet n=20 rho=0.20 rep=0
O     -1.14927556     2.69359764    -1.22292296
H     -1.09851393     3.66632136    -0.97107014
H     -0.62780682     2.68307642    -2.04008648
O      2.59497014     1.89015872     2.69053349
H      2.64537869     1.10279374     2.16246104
H      3.33022727     2.36194924     2.33991188
O     -5.76390338     1.85474727    -4.44778319
H     -5.86803259     2.06306174    -3.46090908
H     -5.18870183     2.52419931    -4.92707777
O     -1.56749459    -2.59129738    -1.06419335
H     -2.14031550    -2.71791554    -1.89086662
H     -1.67340546    -1.66569765    -0.86929734
O      4.38777524     3.74073988    -4.11899727
H      3.85929348     4.08196446    -3.34814732
H      4.95149657     4.45433213    -4.40269718
O      5.78636823     3.83403117    -0.10667449
H      5.98777171     2.88524886    -0.43370111
H      6.61065091     4.23926059    -0.41605805
O     -3.42696561    -4.10797669     2.85963036
H     -3.03031529    -4.84589541     3.25742987
H     -2.90479666    -4.00706089     2.02035439
O     -5.80983922     2.05982253     0.57262593
H     -6.20847723     2.03701900     1.46433978
H     -4.92675683     1.72803885     1.00969814
O      0.55441938    -4.29082151     6.70294564
H     -0.12360107    -4.28086039     7.35514842
H      1.15006001    -3.63403031     7.10583284
O      2.03711546     7.71344137    -2.32258613
H      2.89707515     7.85981950    -1.94551034
H      1.37059616     7.61027892    -1.59410550
O     -6.32069075     0.23679946     4.56146960
H     -5.94134069     0.39502687     5.40421086
H     -5.77254646    -0.43114457     4.15403988
O     -4.21521219    -2.21852322    -4.74794956
H     -4.80728254    -3.00979130    -4.75984944
H     -4.88108390    -1.46149456    -4.70581090
O     -0.50639756     4.69218345     4.67753387
H     -0.93349004     4.03285292     5.17393624
H      0.33605410     4.13993370     4.41075653
O     -1.61690893     0.64259164     6.54050081
H     -1.16233331     0.62612253     7.38560484
H     -1.12938027     0.04216683     5.91487370
O      2.67265338    -4.72947363    -2.27673930
H      2.61242959    -5.35711701    -2.95887123
H      1.82153066    -4.33807799    -2.01681125
O      5.14307134    -0.64083991    -2.29597467
H      4.42278441    -1.26321848    -2.14342105
H      4.84951400    -0.12521665    -3.01328486
O     -6.30850778     6.71012134     0.69536594
H     -6.91827296     7.22626404     0.16220338
H     -6.44147501     5.75228659     0.46445376
O     -1.31549318     6.83942554     0.85007520
H     -2.23610543     7.00007055     0.73093169
H     -1.21167995     6.34147935     1.71447420
O      4.38491541     0.26606600     7.05094116
H      4.95965666    -0.19085528     6.34488823
H      4.09221524     1.13327682     6.85578085
O      6.30140204    -2.63353610     4.13532894
H      6.96228572    -2.91468535     4.75389577
H      5.91065979    -3.48010240     3.81165901
60
droplet-evaporation n=20 rep=0
O     -0.82506472     1.88762963    -0.24503630
H     -0.77430309     2.86035335     0.00681652
H     -0.30359597     1.87710841    -1.06219981
O      1.33727999     1.59389814     2.08917078
H      1.38768853     0.80653316     1.56109834
H      2.07253712     2.06568866     1.73854918
O     -3.51243910     1.40824476    -2.28111286
H     -3.61656831     1.61655923    -1.29423875
H     -2.93723756     2.07769680    -2.76040744
O     -0.89699842    -1.18353485    -0.14293173
H     -1.46981933    -1.31015300    -0.96960500
H     -1.00290929    -0.25793512     0.05196427
O      2.49048081     2.48781610    -2.08582160
H      1.96199906     2.82904068    -1.31497165
H      3.05420214     3.20140835    -2.36952152
O      3.17231932     2.76332812     0.41823006
H      3.37372280     1.81454582     0.09120345
H      3.99660200     3.16855754     0.10884651
O     -2.20630041    -1.87292496     2.12773333
H     -1.80965009    -2.61084368     2.52553283
H     -1.68413146    -1.77200915     1.28845735
O     -3.54117753     1.69860925     0.54428843
H     -3.93981554     1.67580572     1.43600228
H     -2.65809514     1.36682558     0.98136064
O      0.26272987    -2.16014392     4.17073912
H     -0.41529059    -2.15018281     4.82294190
H      0.85837050    -1.50335272     4.57362631
O      1.09256530     4.95320074    -1.11968727
H      1.95252499     5.09957888    -0.74261147
H      0.42604600     4.85003829    -0.39120664
O     -3.90145571     0.65287008     3.00279702
H     -3.52210566     0.81109748     3.84553828
H     -3.35331142    -0.01507395     2.59536731
O     -2.36689568    -0.85016271    -2.39085695
H     -2.95896603    -1.64143079    -2.40275683
H     -3.03276739    -0.09313405    -2.34871830
O     -0.42705052     3.35800519     3.09916642
H     -0.85414300     2.69867467     3.59556880
H      0.41540113     2.80575544     2.83238909
O     -1.14993026     0.90522884     4.19113026
H     -0.69535464     0.88875973     5.03623429
H     -0.66240160     0.30480404     3.56550314
O      1.61728795    -2.29212851    -0.88170720
H      1.55706416    -2.91977190    -1.56383913
H      0.76616523    -1.90073287    -0.62177915
O      3.07761029     0.08341852    -0.87326610
H      2.35732336    -0.53896005    -0.72071249
H      2.78405295     0.59904178    -1.59057629
O     -8.19877131     8.34225177     0.57499027
H     -8.80853649     8.85839446     0.04182770
H     -8.33173854     7.38441701     0.34407809
O     -0.73039805     4.49414979     0.78735029
H     -1.65101031     4.65479480     0.66820678
H     -0.62658483     3.99620361     1.65174929
O      2.45469787     0.54285434     4.64481999
H      3.02943912     0.08593306     3.93876705
H      2.16199771     1.41006515     4.44965968
O      3.57823364    -0.94198468     2.77274454
H      4.23911732    -1.22313393     3.39131136
H      3.18749139    -1.78855097     2.44907461
60
droplet n=20 rho=0.80 rep=1
O     -1.17828517     1.67576254    -0.32331884
H     -1.07150500     2.66140118    -0.01518593
H     -0.49474751     1.42259224    -0.92074689
O      0.87510982     1.67366932     2.15435582
H      0.87296739     0.82086274     2.65699819
H      1.70508967     1.67700355     1.72873294
O     -3.36593034     1.80951220    -2.73097860
H     -3.14004723     1.60797178    -1.83719436
H     -4.20042762     2.19591537    -2.83952323
O     -0.86552468    -1.26509844     0.16750904
H     -1.52551425    -1.54652115    -0.53275152
H     -0.98559135    -0.23844930     0.17840528
O      1.97770713     2.28677647    -3.00683050
H      2.13488036     3.05455800    -2.39304980
H      1.88493025     2.72348991    -3.88447358
O      3.51578197     2.42477892     0.72330301
H      3.82716060     1.75957877     0.06577587
H      3.53225549     3.25142118     0.23711071
O     -2.03077412    -2.42635791     2.52325846
H     -1.20285828    -2.96007674     2.76810426
H     -1.81109566    -1.97456098     1.65139359
O     -4.01174557     1.37681257     0.53821418
H     -4.15525194     1.14442460     1.46564815
H     -3.03486098     1.15793514     0.55598064
O      0.59884579    -1.18302834     3.95696261
H      0.32562046    -1.90284116     4.58199402
H      1.25188551    -0.82472784     4.48375071
O      1.38137846     4.64463437    -0.95163006
H      1.67473113     5.24023713    -0.25097265
H      0.42787996     4.46683580    -0.92335884
O     -3.71931593     0.58600125     3.31402603
H     -3.17822488     1.01241626     4.01877152
H     -3.43784378    -0.36057022     3.32076340
O     -2.77839883    -1.94107837    -2.45995029
H     -3.43763633    -2.54512899    -2.17963926
H     -3.34459241    -1.19641719    -2.74427594
O     -0.23390651     4.14123391     3.24478046
H     -1.11079664     3.90430851     3.69408879
H      0.11493583     3.34303060     2.94065416
O     -1.15596425     1.57965978     4.77583512
H     -0.36710589     1.76421701     5.34260566
H     -0.96485386     0.99481336     4.07364343
O      1.93088001    -2.44291633    -1.30569293
H      1.98822572    -3.33247322    -1.76620485
H      1.01528122    -2.22726539    -1.16960435
O      4.03144011     0.24038593    -1.06239853
H      3.14528343    -0.13647641    -1.11132631
H      4.04888792     0.87409466    -1.81757827
O     -4.05259524     4.44382985     1.50384991
H     -4.64699674     5.06740712     1.00855103
H     -4.21663536     3.59009266     1.13926388
O     -1.08487795     4.87443865     0.40539345
H     -1.98486059     4.91068487     0.80838808
H     -0.44621604     4.74366513     1.07269814
O      2.29882658     1.19266594     5.00018681
H      2.98519435     1.40497568     4.26884422
H      2.83966521     1.07285169     5.79366563
O      3.64172407    -1.01044220     3.00280492
H      4.07232118    -1.12060963     2.13666595
H      2.76163267    -0.76945099     2.70010867
60
droplet n=20 rho=0.60 rep=1
O     -1.24960088     1.75591192    -0.46247616
H     -1.14282071     2.74155056    -0.15434325
H     -0.56606322     1.50274162    -1.05990421
O      1.01171143     1.70053793     2.27684660
H      1.00956900     0.84773134     2.77948897
H      1.84169128     1.70387215     1.85122371
O     -3.70434658     1.88475168    -3.07640069
H     -3.47846347     1.68321126    -2.18261645
H     -4.53884386     2.27115486    -3.18494532
O     -0.95804550    -1.48049641     0.06432851
H     -1.61803507    -1.76191913    -0.63593205
H     -1.07811217    -0.45384727     0.07522475
O      2.19966528     2.44425507    -3.41520971
H      2.35683851     3.21203660    -2.80142902
H      2.10688840     2.88096850    -4.29285280
O      3.90137397     2.56115463     0.66081646
H      4.21275260     1.89595448     0.00328932
H      3.91784748     3.38779689     0.17462417
O     -2.17925540    -2.78637658     2.65925778
H     -1.35133957    -3.32009541     2.90410357
H     -1.95957694    -2.33457965     1.78739291
O     -4.36678302     1.38716363     0.52717783
H     -4.51028938     1.15477566     1.45461180
H     -3.38989842     1.16828620     0.54494429
O      0.69261348    -1.42729487     4.29692891
H      0.41938815    -2.14710768     4.92196032
H      1.34565320    -1.06899437     4.82371701
O      1.51901409     5.01302200    -1.11986330
H      1.81236676     5.60862476    -0.41920589
H      0.56551559     4.83522342    -1.09159208
O     -4.04528536     0.51445202     3.57451346
H     -3.50419431     0.94086703     4.27925895
H     -3.76381322    -0.43211944     3.58125083
O     -3.07837713    -2.24479194    -2.80457292
H     -3.73761463    -2.84884255    -2.52426189
H     -3.64457070    -1.50013075    -3.08889857
O     -0.25440550     4.41021588     3.47930088
H     -1.13129563     4.17329047     3.92860921
H      0.09443684     3.61201256     3.17517458
O     -1.21867122     1.61213600     5.15503106
H     -0.42981286     1.79669323     5.72180160
H     -1.02756083     1.02728957     4.45283937
O      2.11717281    -2.82446105    -1.54489721
H      2.17451852    -3.71401794    -2.00540914
H      1.20157402    -2.60881011    -1.40880863
O      4.42878759     0.16011962    -1.29320927
H      3.54263091    -0.21674272    -1.34213705
H      4.44623540     0.79382835    -2.04838901
O     -4.46514543     4.77027047     1.52944142
H     -5.05954693     5.39384774     1.03414254
H     -4.62918555     3.91653328     1.16485540
O     -1.18207275     5.24876691     0.38518646
H     -2.08205539     5.28501312     0.78818109
H     -0.54341084     5.11799339     1.05249114
O      2.59211231     1.20272584     5.40858960
H      3.27848007     1.41503558     4.67724701
H      3.13295093     1.08291158     6.20206841
O      4.01391317    -1.22082261     3.16889038
H      4.44451028    -1.33099004     2.30275142
H      3.13382178    -0.97983140     2.86619414
60
droplet n=20 rho=0.40 rep=1
O     -1.36246650     1.88275788    -0.68270922
H     -1.25568634     2.86839652    -0.37457632
H     -0.67892885     1.62958757    -1.28013727
O      1.22789978     1.74306069     2.47070287
H      1.22575735     0.89025411     2.97334523
H      2.05787963     1.74639492     2.04507998
O     -4.23993066     2.00382714    -3.62307237
H     -4.01404756     1.80228672    -2.72928813
H     -5.07442794     2.39023032    -3.73161700
O     -1.10447074    -1.82138941    -0.09896698
H     -1.76446031    -2.10281213    -0.79922754
H     -1.22453741    -0.79474027    -0.08807074
O      2.55094054     2.69348374    -4.06151855
H      2.70811377     3.46126527    -3.44773786
H      2.45816366     3.13019717    -4.93916164
O      4.51161931     2.77698546     0.56192405
H      4.82299794     2.11178531    -0.09560309
H      4.52809282     3.60362772     0.07573175
O     -2.41424475    -3.35614909     2.87449292
H     -1.58632892    -3.88986791     3.11933872
H     -2.19456629    -2.90435215     2.00262805
O     -4.92867214     1.40354541     0.50971149
H     -5.07217850     1.17115744     1.43714546
H     -3.95178755     1.18466798     0.52747795
O      0.84101204    -1.81387580     4.83496615
H      0.56778671    -2.53368861     5.45999756
H      1.49405176    -1.45557530     5.36175425
O      1.73683891     5.59603937    -1.38611249
H      2.03019158     6.19164213    -0.68545508
H      0.78334040     5.41824080    -1.35784127
O     -4.56117089     0.40121683     3.98676590
H     -4.02007984     0.82763184     4.69151139
H     -4.27969875    -0.54535463     3.99350327
O     -3.55312858    -2.72545489    -3.34997936
H     -4.21236608    -3.32950551    -3.06966833
H     -4.11932215    -1.98079370    -3.63430501
O     -0.28684761     4.83591193     3.85045744
H     -1.16373773     4.59898653     4.29976577
H      0.06199473     4.03770861     3.54633114
O     -1.31791248     1.66353348     5.75515389
H     -0.52905413     1.84809071     6.32192442
H     -1.12680209     1.07868706     5.05296219
O      2.41200340    -3.42830109    -1.92346654
H      2.46934910    -4.31785798    -2.38397846
H      1.49640460    -3.21265015    -1.78737796
O      5.05763739     0.03308861    -1.65849481
H      4.17148071    -0.34377373    -1.70742259
H      5.07508520     0.66679735    -2.41367455
O     -5.11805532     5.28690170     1.56994305
H     -5.71245683     5.91047897     1.07464416
H     -5.28209544     4.43316451     1.20535702
O     -1.33589511     5.84118604     0.35320647
H     -2.23587776     5.87743226     0.75620110
H     -0.69723320     5.71041253     1.02051115
O      3.05627196     1.21864682     6.05493574
H      3.74263973     1.43095657     5.32359315
H      3.59711059     1.09883257     6.84841456
O      4.60294684    -1.55377472     3.43174045
H      5.03354395    -1.66394215     2.56560149
H      3.72285544    -1.31278351     3.12904421
60
droplet n=20 rho=0.20 rep=1
O     -1.59452044     2.14355566    -1.13551273
H     -1.48774028     3.12919429    -0.82737983
H     -0.91098279     1.89038535    -1.73294078
O      1.67238728     1.83048834     2.86927516
H      1.67024485     0.97768175     3.37191753
H      2.50236713     1.83382256     2.44365227
O     -5.34110206     2.24864864    -4.74704009
H     -5.11521896     2.04710822    -3.85325585
H     -6.17559934     2.63505181    -4.85558472
O     -1.40552390    -2.52227212    -0.43470573
H     -2.06551347    -2.80369484    -1.13496629
H     -1.52559057    -1.49562298    -0.42380949
O      3.27316938     3.20590279    -5.39034223
H      3.43034261     3.97368432    -4.77656153
H      3.18039250     3.64261622    -6.26798531
O      5.76629573     3.22073790     0.35859931
H      6.07767437     2.55553775    -0.29892783
H      5.78276925     4.04738016    -0.12759299
O     -2.89738748    -4.52761257     3.31702060
H     -2.06947164    -5.06133139     3.56186640
H     -2.67770901    -4.07581563     2.44515573
O     -6.08392723     1.43722668     0.47380035
H     -6.22743359     1.20483870     1.40123432
H     -5.10704263     1.21834924     0.49156681
O      1.14612239    -2.60869379     5.94118129
H      0.87289706    -3.32850661     6.56621270
H      1.79916211    -2.25039330     6.46796939
O      2.18469100     6.79473457    -1.93352606
H      2.47804367     7.39033733    -1.23286864
H      1.23119250     6.61693599    -1.90525483
O     -5.62184169     0.16840306     4.83436502
H     -5.08075063     0.59481807     5.53911051
H     -5.34036954    -0.77816841     4.84110239
O     -4.52922690    -3.71370738    -4.47134572
H     -5.18846440    -4.31775799    -4.19103469
H     -5.09542047    -2.96904619    -4.75567137
O     -0.35354921     5.71115138     4.61356262
H     -1.23043934     5.47422598     5.06287095
H     -0.00470687     4.91294806     4.30943632
O     -1.52195447     1.76920771     6.98901821
H     -0.73309612     1.95376494     7.55578875
H     -1.33084408     1.18436129     6.28682651
O      3.01818088    -4.66980810    -2.70181251
H      3.07552658    -5.55936499    -3.16232444
H      2.10258208    -4.45415716    -2.56572393
O      6.35056494    -0.22808964    -2.40952906
H      5.46440826    -0.60495198    -2.45845685
H      6.36801275     0.40561910    -3.16470880
O     -6.46045091     6.34910566     1.65321518
H     -7.05485242     6.97268293     1.15791630
H     -6.62449103     5.49536848     1.28862915
O     -1.65215692     7.05921144     0.28745499
H     -2.55213957     7.09545765     0.69044963
H     -1.01349501     6.92843792     0.95475968
O      4.01059334     1.25138069     7.38383612
H      4.69696111     1.46369044     6.65249353
H      4.55143197     1.13156644     8.17731494
O      5.81401164    -2.23833080     3.97216536
H      6.24460875    -2.34849822     3.10602640
H      4.93392025    -1.99733958     3.66946912
60
droplet-evaporation n=20 rep=1
O     -1.12814991     1.61941718    -0.22549064
H     -1.02136975     2.60505582     0.08264226
H     -0.44461226     1.36624688    -0.82291869
O      0.77907830     1.65478058     2.06824428
H      0.77693587     0.80197400     2.57088665
H      1.60905815     1.65811481     1.64262139
O     -3.12802226     1.75661852    -2.48814537
H     -2.90213915     1.55507810    -1.59436113
H     -3.96251954     2.14302169    -2.59669001
O     -0.80048214    -1.11367273     0.24004540
H     -1.46047171    -1.39509544    -0.46021516
H     -0.92054881    -0.08702359     0.25094164
O      1.82166959     2.17606834    -2.71973814
H      1.97884282     2.94384987    -2.10595745
H      1.72889271     2.61278177    -3.59738123
O      3.24470913     2.32890620     0.76723132
H      3.55608776     1.66370605     0.10970418
H      3.26118264     3.15554846     0.28103902
O     -1.92639114    -2.17326323     2.42765036
H     -1.09847530    -2.70698205     2.67249615
H     -1.70671267    -1.72146629     1.55578549
O     -3.76215271     1.36953574     0.54597278
H     -3.90565907     1.13714776     1.47340675
H     -2.78526812     1.15065830     0.56373924
O      0.53292669    -1.01130791     3.71796483
H      0.25970136    -1.73112073     4.34299624
H      1.18596642    -0.65300741     4.24475292
O      1.28462002     4.38565627    -0.83336136
H      1.57797269     4.98125903    -0.13270395
H      0.33112151     4.20785770    -0.80509014
O     -3.49015800     0.63630067     3.13090224
H     -2.94906695     1.06271568     3.83564773
H     -3.20868586    -0.31027080     3.13763961
O     -7.73157172    -6.90744624    -8.08017152
H     -8.39080922    -7.51149685    -7.79986048
H     -8.29776530    -6.16278505    -8.36449716
O     -0.21949563     3.95213843     3.07991158
H     -1.09638575     3.71521303     3.52921991
H      0.12934671     3.15393511     2.77578528
O     -1.11188098     1.55682886     4.50925874
H     -0.32302262     1.74138609     5.07602928
H     -0.92077058     0.97198244     3.80706704
O      1.79991537    -2.17468874    -1.13753128
H      1.85726108    -3.06424563    -1.59804320
H      0.88431658    -1.95903780    -1.00144270
O      3.75210312     0.29681349    -0.90013758
H      2.86594643    -0.08004885    -0.94906536
H      3.76955092     0.93052222    -1.65531732
O     -3.76257067     4.21434068     1.48585896
H     -4.35697218     4.83791795     0.99056008
H     -3.92661079     3.36060350     1.12127294
O     -1.01654959     4.61128426     0.41959906
H     -1.91653223     4.64753048     0.82259369
H     -0.37788768     4.48051075     1.08690374
O      2.09264545     1.18559379     4.71307789
H      2.77901321     1.39790353     3.98173529
H      2.63348407     1.06577953     5.50655670
O      3.38007351    -0.86254386     2.88604612
H      3.81067063    -0.97271129     2.01990715
H      2.49998212    -0.62155265     2.58334987
60
droplet n=20 rho=0.80 rep=2
O     -0.99232399     1.59879172    -0.02729797
H     -0.47036705     1.63045289     0.73139964
H     -1.20817763     2.49278478    -0.31011861
O      0.56204134     1.85419963     2.43201224
H      0.31054192     0.99166296     2.85387849
H      1.50077480     1.85933987     2.21967928
O     -3.25443808     1.66048474    -2.72014384
H     -3.29885786     1.81705193    -1.79080076
H     -3.63937319     2.46581749    -3.16164166
O     -0.76654511    -1.33566801     0.03068622
H     -1.21860179    -1.67168135    -0.79533528
H     -0.47391174    -0.41762199    -0.25119716
O      1.49386392     1.56008437    -2.76445624
H      1.62532655     2.22309054    -2.05026434
H      1.03358535     2.10056424    -3.41429733
O      3.26847682     1.89767035     1.04934902
H      3.64716268     1.31464599     0.35149921
H      3.48843474     2.78515486     0.73727891
O     -1.60185655    -3.06761154     2.19916529
H     -1.91174232    -2.39597694     2.73628367
H     -1.24783541    -2.69147233     1.37862630
O     -3.83139484     1.14932807     0.11750238
H     -4.20612495     0.40942121     0.56547328
H     -2.89356235     1.26416438     0.32736467
O      0.15237390    -1.13943576     3.25764787
H     -0.09199344    -1.16262015     2.36709391
H      0.00223530    -2.06206177     3.63156440
O      1.64109902     3.59870379    -0.65922474
H      1.87318480     4.52195788    -0.55040090
H      0.80868476     3.48504003    -0.15070697
O     -3.32686839     0.72513214     3.73849442
H     -2.91224613     1.43633957     4.25901461
H     -4.16256719     0.63221216     4.17842028
O     -2.51294149    -1.81473170    -2.31298084
H     -3.23985502    -2.02039531    -1.72173952
H     -2.57932517    -0.96017952    -2.73423102
O     -0.05289942     4.91749651     3.16453393
H     -0.39051418     4.80538832     4.09738220
H      0.34436151     4.10729419     2.98245457
O     -1.01752351     2.60338422     4.84562162
H     -0.42749187     2.52542954     5.58542412
H     -0.51036277     2.41223430     4.08371410
O      1.81533312    -1.99350937    -0.81914027
H      2.00076463    -2.92671783    -0.75925649
H      0.87237505    -2.00378710    -0.72702275
O      3.81343584     0.51509229    -1.41393210
H      3.58039433    -0.41693669    -1.36427275
H      3.09818379     0.96244092    -1.97938342
O     -4.34558197     4.06765918     1.33926843
H     -4.02943570     3.92249440     2.24386719
H     -4.33060484     3.19816407     0.95573634
O     -1.39116521     4.58568022     0.23583866
H     -2.37230641     4.65639393     0.35656264
H     -0.95673989     5.13393587     0.95587696
O      2.47497459     1.99459152     4.95230526
H      3.06797321     1.97629383     5.68507370
H      2.97262990     1.48569384     4.31119822
O      3.56009548    -0.18095891     3.24062114
H      4.26611947    -0.54169258     2.66608363
H      2.90608622     0.03921942     2.54548239
60
droplet n=20 rho=0.60 rep=2
O     -1.05930546     1.67236244    -0.11628595
H     -0.53734852     1.70402361     0.64241166
H     -1.27515910     2.56635550    -0.39910659
O      0.66428092     1.89365838     2.58160002
H      0.41278150     1.03112170     3.00346628
H      1.60301438     1.89879862     2.36926706
O     -3.57375694     1.74148035    -3.07974483
H     -3.61817673     1.89804753    -2.15040175
H     -3.95869205     2.54681310    -3.52124265
O     -0.82642089    -1.56895604    -0.10559796
H     -1.27847757    -1.90496938    -0.93161947
H     -0.53378752    -0.65091002    -0.38748135
O      1.65579848     1.63908004    -3.14272410
H      1.78726110     2.30208621    -2.42853220
H      1.19551991     2.17955991    -3.79256520
O      3.64012663     1.98048145     1.01887266
H      4.01881249     1.39745708     0.32102286
H      3.86008455     2.86796596     0.70680255
O     -1.73897122    -3.45958212     2.30878144
H     -2.04885698    -2.78794752     2.84589982
H     -1.38495007    -3.08344291     1.48824245
O     -4.17548559     1.12564078     0.04919163
H     -4.55021570     0.38573392     0.49716252
H     -3.23765311     1.24047710     0.25905392
O      0.17709392    -1.40422978     3.46596842
H     -0.06727342    -1.42741417     2.57541446
H      0.02695532    -2.32685579     3.83988495
O      1.80874311     3.86965684    -0.80706557
H      2.04082888     4.79291094    -0.69824174
H      0.97632885     3.75599308    -0.29854780
O     -3.65319910     0.70046427     4.04476095
H     -3.23857684     1.41167170     4.56528115
H     -4.48889790     0.60754429     4.48468681
O     -2.76984369    -2.09399101    -2.64226716
H     -3.49675722    -2.29965462    -2.05102584
H     -2.83622737    -1.23943883    -3.06351734
O     -0.03360295     5.26307515     3.40600155
H     -0.37121771     5.15096697     4.33884982
H      0.36365798     4.45287284     3.22392219
O     -1.06050209     2.73797842     5.23035000
H     -0.47047045     2.66002374     5.97015251
H     -0.55334135     2.54682850     4.46844249
O      1.99523895    -2.34418144    -0.99868638
H      2.18067046    -3.27738991    -0.93880261
H      1.05228088    -2.35445917    -0.90656887
O      4.18803581     0.43228372    -1.67574227
H      3.95499429    -0.49974526    -1.62608293
H      3.47278376     0.87963236    -2.24119360
O     -4.74920406     4.32461005     1.38933100
H     -4.43305780     4.17944528     2.29392976
H     -4.73422694     3.45511494     1.00579891
O     -1.52689695     4.94957012     0.18557437
H     -2.50803816     5.02028383     0.30629835
H     -1.09247163     5.49782576     0.90561267
O      2.78327012     2.05925706     5.35158712
H      3.37626874     2.04095937     6.08435556
H      3.28092543     1.55035938     4.71048008
O      3.94275647    -0.32227523     3.42196553
H      4.64878046    -0.68300890     2.84742803
H      3.28874722    -0.10209689     2.72682679
60
droplet n=20 rho=0.40 rep=2
O     -1.16531163     1.78879688    -0.25712004
H     -0.64335469     1.82045806     0.50157756
H     -1.38116527     2.68278994    -0.53994069
O      0.82608726     1.95610655     2.81834055
H      0.57458784     1.09356988     3.24020680
H      1.76482072     1.96124680     2.60600758
O     -4.07911714     1.86966556    -3.64885631
H     -4.12353693     2.02623275    -2.71951322
H     -4.46405226     2.67499831    -4.09035412
O     -0.92118146    -1.93816219    -0.32128395
H     -1.37323813    -2.27417552    -1.14730546
H     -0.62854809    -1.02011617    -0.60316734
O      1.91207923     1.76410012    -3.74137814
H      2.04354186     2.42710629    -3.02718624
H      1.45180066     2.30458000    -4.39121923
O      4.22830681     2.11153989     0.97064019
H      4.60699266     1.52851553     0.27279039
H      4.44826473     2.99902440     0.65857008
O     -1.95597153    -4.07992233     2.48226207
H     -2.26585730    -3.40828773     3.01938046
H     -1.60195039    -3.70378312     1.66172308
O     -4.72005027     1.08815283    -0.05891829
H     -5.09478038     0.34824597     0.38905261
H     -3.78221778     1.20298914     0.15094401
O      0.21621630    -1.82329791     3.79566057
H     -0.02815103    -1.84648230     2.90510661
H      0.06607771    -2.74592392     4.16957710
O      2.07405989     4.29847239    -1.04104134
H      2.30614566     5.22172648    -0.93221750
H      1.24164563     4.18480863    -0.53252357
O     -4.16965638     0.66142442     4.52946429
H     -3.75503412     1.37263185     5.04998448
H     -5.00535518     0.56850444     4.96939015
O     -3.17642208    -2.53595220    -3.16340206
H     -3.90333560    -2.74161581    -2.57216074
H     -3.24280576    -1.68140002    -3.58465224
O     -0.00306398     5.80999459     3.78815289
H     -0.34067874     5.69788641     4.72100115
H      0.39419695     4.99979228     3.60607353
O     -1.12852081     2.95098980     5.83922858
H     -0.53848917     2.87303512     6.57903109
H     -0.62136007     2.75983988     5.07732107
O      2.27996140    -2.89916185    -1.28283953
H      2.46539291    -3.83237032    -1.22295575
H      1.33700333    -2.90943958    -1.19072201
O      4.78088496     0.30122928    -2.09008811
H      4.54784344    -0.63079970    -2.04042877
H      4.06563291     0.74857792    -2.65553944
O     -5.38798419     4.73126547     1.46856098
H     -5.07183793     4.58610070     2.37315974
H     -5.37300707     3.86177036     1.08502889
O     -1.74170863     5.52546930     0.10602513
H     -2.72284984     5.59618301     0.22674911
H     -1.30728331     6.07372494     0.82606343
O      3.27118458     2.16159799     5.98349831
H      3.86418320     2.14330030     6.71626676
H      3.76883989     1.65270031     5.34239127
O      4.54836316    -0.54592517     3.70896468
H      5.25438715    -0.90665884     3.13442718
H      3.89435390    -0.32574683     3.01382594
60
droplet n=20 rho=0.20 rep=2
O     -1.38326240     2.02818839    -0.54667771
H     -0.86130546     2.05984956     0.21201989
H     -1.59911604     2.92218145    -0.82949836
O      1.15876428     2.08450123     3.30508371
H      0.90726486     1.22196456     3.72694996
H      2.09749774     2.08964148     3.09275075
O     -5.11814766     2.13321688    -4.81896069
H     -5.16256745     2.28978407    -3.88961761
H     -5.50308277     2.93854963    -5.26045851
O     -1.11601105    -2.69725728    -0.76473859
H     -1.56806772    -3.03327062    -1.59076010
H     -0.82337768    -1.77921127    -1.04662198
O      2.43899749     2.02114387    -4.97222260
H      2.57046012     2.68415004    -4.25803070
H      1.97871892     2.56162374    -5.62206369
O      5.43761681     2.38099863     0.87147329
H      5.81630267     1.79797426     0.17362349
H      5.65757473     3.26848314     0.55940318
O     -2.40212845    -5.35535400     2.83894167
H     -2.71201421    -4.68371939     3.37606005
H     -2.04810731    -4.97921478     2.01840268
O     -5.83968595     1.01107687    -0.28119440
H     -6.21441606     0.27117000     0.16677650
H     -4.90185346     1.12591318    -0.07133210
O      0.29665269    -2.68491023     4.47351409
H      0.05228536    -2.70809461     3.58296013
H      0.14651410    -3.60753623     4.84743062
O      2.61955639     5.18012557    -1.52210011
H      2.85164217     6.10337966    -1.41327627
H      1.78714213     5.06646181    -1.01358233
O     -5.23150271     0.58115773     5.52602388
H     -4.81688045     1.29236516     6.04654407
H     -6.06720151     0.48823775     5.96594974
O     -4.01235523    -3.44463309    -4.23486566
H     -4.73926876    -3.65029670    -3.64362434
H     -4.07873891    -2.59008091    -4.65611584
O      0.05972475     6.93447172     4.57386354
H     -0.27789001     6.82236354     5.50671180
H      0.45698568     6.12426941     4.39178418
O     -1.26836864     3.38894539     7.09109492
H     -0.67833700     3.31099071     7.83089742
H     -0.76120790     3.19779547     6.32918740
O      2.86535635    -4.04021248    -1.86706398
H      3.05078786    -4.97342095    -1.80718021
H      1.92239828    -4.05049021    -1.77494647
O      5.99979446     0.03177877    -2.94199131
H      5.76675295    -0.90025021    -2.89233197
H      5.28454241     0.47912741    -3.50744264
O     -6.70132870     5.56735701     1.63145939
H     -6.38518244     5.42219223     2.53605815
H     -6.68635158     4.69786190     1.24792730
O     -2.18336567     6.70952934    -0.05752967
H     -3.16450688     6.78024305     0.06319430
H     -1.74894035     7.25778498     0.66250863
O      4.27434630     2.37201295     7.28272015
H      4.86734492     2.35371526     8.01548859
H      4.77200161     1.86311527     6.64161311
O      5.79350242    -1.00575383     4.29904058
H      6.49952641    -1.36648751     3.72450307
H      5.13949316    -0.78557550     3.60390183
60
droplet-evaporation n=20 rep=2
O     -0.94523572     1.54707118     0.03526097
H     -0.42327878     1.57873236     0.79395857
H     -1.16108936     2.44106424    -0.24755968
O      0.49016647     1.82645996     2.32685138
H      0.23866705     0.96392328     2.74871763
H      1.42889993     1.83160020     2.11451841
O     -3.02995553     1.60354448    -2.46734279
H     -3.07437532     1.76011166    -1.53799971
H     -3.41489065     2.40887723    -2.90884061
O     -0.72445218    -1.17166551     0.12649460
H     -1.17650885    -1.50767885    -0.69952691
H     -0.43181881    -0.25361950    -0.15538879
O      1.38002323     1.50455007    -2.49853229
H      1.51148586     2.16755624    -1.78434039
H      0.91974466     2.04502994    -3.14837339
O      3.00720539     1.83945379     1.07077403
H      3.38589125     1.25642943     0.37292422
H      3.22716331     2.72693830     0.75870392
O     -1.50546435    -2.79205453     2.12210466
H     -1.81535012    -2.12041993     2.65922304
H     -1.15144321    -2.41591532     1.30156567
O     -3.58949755     1.16598033     0.16552513
H     -3.96422766     0.42607347     0.61349603
H     -2.65166507     1.28081664     0.37538743
O      0.13499562    -0.95328442     3.11119761
H     -0.10937172    -0.97646881     2.22064365
H     -0.01514298    -1.87591043     3.48511414
O      1.52324450     3.40822262    -0.55529199
H      1.75533028     4.33147671    -0.44646816
H      0.69083024     3.29455886    -0.04677422
O     -3.09745649     0.74247376     3.52318772
H     -2.68283423     1.45368118     4.04370791
H     -3.93315529     0.64955378     3.96311358
O     -2.33233813    -1.61841120    -2.08149113
H     -3.05925166    -1.82407481    -1.49024981
H     -2.39872181    -0.76385902    -2.50274131
O     -0.06646493     4.67455322     2.99478114
H     -0.40407969     4.56244504     3.92762941
H      0.33079600     3.86435091     2.81270178
O     -0.98730939     2.50876392     4.57515590
H     -0.39727775     2.43080924     5.31495840
H     -0.48014865     2.31761400     3.81324838
O      1.68885854    -1.74698538    -0.69291857
H      1.87429005    -2.68019385    -0.63303480
H      0.74590047    -1.75726311    -0.60080106
O      3.55009045     0.57330707    -1.22987841
H      3.31704893    -0.35872191    -1.18021906
H      2.83483839     1.02065571    -1.79532973
O     -4.06183388     3.88702160     1.30407423
H     -3.74568762     3.74185683     2.20867299
H     -4.04685676     3.01752649     0.92054214
O     -1.29574520     4.32986405     0.27117468
H     -2.27688641     4.40057776     0.39189866
H     -0.86131988     4.87811969     0.99121298
O      5.60289981     2.61597467     9.11624768
H      6.19589843     2.59767698     9.84901612
H      6.10055512     2.10707699     8.47514064
O      3.29108314    -0.08161293     3.11313524
H      3.99710713    -0.44234660     2.53859773
H      2.63707389     0.13856541     2.41799650
60
droplet n=20 rho=0.80 rep=3
O     -1.07748725     1.59192465     0.12146887
H     -0.14396204     1.57893312     0.29233901
H     -1.32748173     2.56201332    -0.05602752
O      0.93146502     2.27141367     2.87993078
H      0.66467129     1.30560385     2.86925406
H      1.80414239     2.32269577     2.47195802
O     -3.20839058     1.30754635    -2.67579462
H     -3.42804933     1.23530880    -1.72231791
H     -2.43874652     1.86602905    -2.54381188
O     -0.52091186    -1.40101441    -0.27699724
H     -1.13499048    -1.55060058    -1.04356392
H     -0.40753045    -0.47667814    -0.21807686
O      0.80509276     0.93816648    -2.17009603
H      0.91784704     1.86672313    -2.04519804
H     -0.11490821     0.75479180    -1.97310174
O      3.11309169     1.85428689     1.17007653
H      3.62600316     1.37333899     0.48898076
H      2.73939718     2.57923307     0.62234371
O     -2.14006183    -3.55832849     1.89706125
H     -3.08346186    -3.50089819     1.68286483
H     -1.51580531    -3.47733516     1.15443966
O     -4.20818606     0.81571257     0.64541738
H     -4.29239486     0.36768943     1.51306828
H     -3.24087550     0.95426023     0.51244662
O      0.00751648    -0.72412964     2.71018681
H      0.32221184    -1.48246390     2.16873099
H     -0.08032304    -0.94692803     3.68529519
O      1.23501142     3.65974212    -0.52644098
H      1.62661252     4.56947368    -0.51663380
H      0.33794687     3.94709151    -0.21504254
O     -3.19315310     0.85109618     3.17889262
H     -2.49329297     0.21405217     2.98411964
H     -2.68921396     1.53249570     3.64464869
O     -1.98850804    -1.63721523    -2.91595992
H     -1.75817485    -2.07547802    -3.74580109
H     -2.47450596    -0.87129740    -3.11150333
O      0.34653216     5.59910479     2.57597500
H     -0.15075980     5.44010783     3.37696099
H      1.32361595     5.37875535     2.66836034
O     -1.01236870     2.91266770     5.26057605
H     -1.44779806     2.11601157     5.61947502
H     -0.54882696     2.68866687     4.44181254
O      2.51409006    -2.06697927    -0.47712233
H      2.95869264    -2.76771715    -0.01333366
H      1.53185537    -2.18489664    -0.32227765
O      3.88333159     0.34129569    -1.24586349
H      3.89109562    -0.60697677    -1.29017819
H      2.88879977     0.59133702    -1.43545068
O     -4.26705381     3.70377522     0.94573265
H     -4.77441225     3.87904199     0.11099481
H     -4.41030693     2.72746400     1.11235730
O     -1.49919502     4.46416164     0.40613269
H     -2.38349596     4.20998171     0.77209362
H     -0.94271201     4.71756291     1.16354375
O      2.38901271     3.38302372     5.56979524
H      1.38649588     3.46898451     5.73417254
H      2.30863332     2.97613125     4.68309616
O      3.45772785    -0.54577455     3.32069872
H      4.00885305    -0.32942056     4.07204275
H      3.75521433     0.07969755     2.63929899
60
droplet n=20 rho=0.60 rep=3
O     -1.14014761     1.66550123     0.03177896
H     -0.20662240     1.65250971     0.20264910
H     -1.39014209     2.63558991    -0.14571743
O      1.06838561     2.35058739     3.05403681
H      0.80159188     1.38477756     3.04336008
H      1.94106297     2.40186949     2.64606405
O     -3.48999031     1.33670652    -3.01037117
H     -3.70964906     1.26446897    -2.05689446
H     -2.72034626     1.89518922    -2.87838843
O     -0.56728499    -1.63477172    -0.43030720
H     -1.18136360    -1.78435790    -1.19687387
H     -0.45390358    -0.71043546    -0.37138681
O      0.88188798     0.93883804    -2.47939360
H      0.99464227     1.86739469    -2.35449561
H     -0.03811298     0.75546337    -2.28239931
O      3.45392097     1.93034558     1.14491923
H      3.96683244     1.44939768     0.46382346
H      3.08022646     2.65529176     0.59718642
O     -2.34329945    -4.03055025     1.95419472
H     -3.28669948    -3.97311995     1.73999830
H     -1.71904294    -3.94955693     1.21157313
O     -4.57923242     0.76867898     0.63332787
H     -4.66344121     0.32065584     1.50097877
H     -3.61192185     0.90722664     0.50035711
O      0.03873323    -0.94866906     2.89580198
H      0.35342859    -1.70700332     2.35434615
H     -0.04910630    -1.17146745     3.87091035
O      1.36519876     3.94947970    -0.67034017
H      1.75679986     4.85921126    -0.66053299
H      0.46813422     4.23682909    -0.35894173
O     -3.45128549     0.81949383     3.40622231
H     -2.75142536     0.18244981     3.21144934
H     -2.94734635     1.50089334     3.87197838
O     -2.17436337    -1.90974328    -3.34552077
H     -1.94403018    -2.34800607    -4.17536194
H     -2.66036129    -1.14382544    -3.54106418
O      0.42035363     6.03113936     2.76350516
H     -0.07693833     5.87214240     3.56449115
H      1.39743742     5.81078992     2.85589050
O     -1.09046300     3.05281840     5.67289331
H     -1.52589236     2.25616228     6.03179228
H     -0.62692126     2.82881758     4.85412980
O      2.77192779    -2.42121562    -0.60608003
H      3.21653037    -3.12195350    -0.14229135
H      1.78969310    -2.53913299    -0.45123534
O      4.26390573     0.23347388    -1.48078955
H      4.27166976    -0.71479859    -1.52510426
H      3.26937391     0.48351520    -1.67037674
O     -4.69547696     3.93091235     0.91680743
H     -5.20283540     4.10617911     0.08206959
H     -4.83873008     2.95460112     1.08343208
O     -1.63822526     4.79467278     0.38300063
H     -2.52252620     4.54049285     0.74896155
H     -1.08174225     5.04807405     1.14041168
O      2.61597012     3.59398620     6.00442829
H      1.61345329     3.67994699     6.16880559
H      2.53559073     3.18709373     5.11772921
O      3.85704054    -0.69120823     3.55555579
H      4.40816574    -0.47485424     4.30689981
H      4.15452702    -0.06573614     2.87415606
60
droplet n=20 rho=0.40 rep=3
O     -1.23931511     1.78194496    -0.11016602
H     -0.30578991     1.76895343     0.06070412
H     -1.48930959     2.75203363    -0.28766241
O      1.28507877     2.47588924     3.32958037
H      1.01828504     1.51007942     3.31890365
H      2.15775614     2.52717134     2.92160761
O     -3.93565549     1.38285597    -3.53987848
H     -4.15531424     1.31061842    -2.58640178
H     -3.16601144     1.94133868    -3.40789575
O     -0.64067599    -2.00472057    -0.67293849
H     -1.25475461    -2.15430675    -1.43950516
H     -0.52729458    -1.08038431    -0.61401810
O      1.00342559     0.93990087    -2.96889392
H      1.11617988     1.86845752    -2.84399592
H      0.08342462     0.75652620    -2.77189963
O      3.99332397     2.05071753     1.10510481
H      4.50623544     1.56976964     0.42400903
H      3.61962946     2.77566371     0.55737199
O     -2.66494724    -4.77789754     2.04461525
H     -3.60834727    -4.72046724     1.83041883
H     -2.04069073    -4.69690422     1.30199366
O     -5.16645755     0.69424272     0.61419478
H     -5.25066634     0.24621958     1.48184568
H     -4.19914698     0.83279038     0.48122402
O      0.08813746    -1.30402950     3.18956012
H      0.40283282    -2.06236376     2.64810430
H      0.00029793    -1.52682789     4.16466850
O      1.57123576     4.40802400    -0.89807781
H      1.96283687     5.31775555    -0.88827063
H      0.67417122     4.69537338    -0.58667937
O     -3.85981081     0.76947933     3.76599869
H     -3.15995067     0.13243531     3.57122571
H     -3.35587166     1.45087884     4.23175476
O     -2.46850161    -2.34105144    -4.02535207
H     -2.23816842    -2.77931423    -4.85519324
H     -2.95449953    -1.57513360    -4.22089548
O      0.53718491     6.71488563     3.06029402
H      0.03989295     6.55588867     3.86128001
H      1.51426870     6.49453619     3.15267936
O     -1.21405656     3.27462362     6.32543457
H     -1.64948592     2.47796749     6.68433354
H     -0.75051481     3.05062279     5.50667106
O      3.17998677    -2.98183691    -0.81017097
H      3.62458935    -3.68257479    -0.34638229
H      2.19775207    -3.09975429    -0.65532628
O      4.86620972     0.06283299    -1.85258808
H      4.87397375    -0.88543947    -1.89690279
H      3.87167790     0.31287431    -2.04217527
O     -5.37350772     4.29038395     0.87102981
H     -5.88086616     4.46565071     0.03629197
H     -5.51676084     3.31407272     1.03765446
O     -1.85825721     5.31774610     0.34639137
H     -2.74255815     5.06356618     0.71235229
H     -1.30177420     5.57114738     1.10380242
O      2.97515730     3.92785951     6.69228695
H      1.97264048     4.01382030     6.85666425
H      2.89477792     3.52096704     5.80558787
O      4.48900053    -0.92137438     3.92724511
H      5.04012572    -0.70502040     4.67858914
H      4.78648700    -0.29590229     3.24584538
60
droplet n=20 rho=0.20 rep=3
O     -1.44320544     2.02135555    -0.40200770
H     -0.50968024     2.00836402    -0.23113756
H     -1.69319993     2.99144422    -0.57950409
O      1.73060418     2.73351233     3.89610335
H      1.46381045     1.76770250     3.88542663
H      2.60328154     2.78479443     3.48813059
O     -4.85195187     1.47774015    -4.62855594
H     -5.07161062     1.40550260    -3.67507923
H     -4.08230782     2.03622285    -4.49657320
O     -0.79156934    -2.76534268    -1.17179320
H     -1.40564795    -2.91492885    -1.93835987
H     -0.67818793    -1.84100641    -1.11287281
O      1.25330930     0.94208607    -3.97531619
H      1.36606359     1.87064272    -3.85041820
H      0.33330833     0.75871140    -3.77832190
O      5.10234715     2.29820463     1.02324556
H      5.61525861     1.81725674     0.34214979
H      4.72865263     3.02315081     0.47551274
O     -3.32626142    -6.31445826     2.23052163
H     -4.26966145    -6.25702796     2.01632522
H     -2.70200490    -6.23346494     1.48790004
O     -6.37380396     0.54120031     0.57485677
H     -6.45801275     0.09317717     1.44250767
H     -5.40649339     0.67974797     0.44188601
O      0.18971352    -2.03465754     3.79353263
H      0.50440888    -2.79299180     3.25207681
H      0.10187399    -2.25745593     4.76864101
O      1.99485189     5.35080009    -1.36631088
H      2.38645300     6.26053164    -1.35650370
H      1.09778735     5.63814947    -1.05491244
O     -4.69974688     0.66664853     4.50570598
H     -3.99988675     0.02960451     4.31093300
H     -4.19580774     1.34804804     4.97146205
O     -3.07325561    -3.22782948    -5.42309859
H     -2.84292242    -3.66609228    -6.25293976
H     -3.55925353    -2.46191165    -5.61864201
O      0.77739232     8.12068140     3.67049776
H      0.28010036     7.96168444     4.47148374
H      1.75447611     7.90033196     3.76288309
O     -1.46816733     3.73065951     7.66707223
H     -1.90359669     2.93400338     8.02597121
H     -1.00462559     3.50665868     6.84830872
O      4.01896404    -4.13448532    -1.22978595
H      4.46356662    -4.83522320    -0.76599727
H      3.03672935    -4.25240270    -1.07494126
O      6.10455856    -0.28800803    -2.61701317
H      6.11232260    -1.23628050    -2.66132788
H      5.11002674    -0.03796671    -2.80660036
O     -6.76755229     5.02946463     0.77691013
H     -7.27491073     5.20473139    -0.05782772
H     -6.91080541     4.05315340     0.94353478
O     -2.31064722     6.39319514     0.27112201
H     -3.19494817     6.13901522     0.63708293
H     -1.75416421     6.64659642     1.02853306
O      3.71365322     4.61430960     8.10653788
H      2.71113639     4.70027039     8.27091518
H      3.63327383     4.20741713     7.21983880
O      5.78832268    -1.39460052     4.69144568
H      6.33944788    -1.17824654     5.44278970
H      6.08580916    -0.76912843     4.01004595
60
droplet-evaporation n=20 rep=3
O     -1.03343674     1.54019999     0.18452127
H     -0.09991154     1.52720847     0.35539140
H     -1.28343122     2.51028866     0.00702487
O      0.83520926     2.21575420     2.75753349
H      0.56841553     1.24994438     2.74685677
H      1.70788662     2.26703630     2.34956073
O     -3.01042474     1.28704663    -2.44058585
H     -3.23008349     1.21480907    -1.48710915
H     -2.24078069     1.84552933    -2.30860312
O     -0.48831135    -1.23668200    -0.16921969
H     -1.10238997    -1.38626817    -0.93578636
H     -0.37492995    -0.31234574    -0.11029930
O      0.75110538     0.93769437    -1.95265850
H      0.86385967     1.86625101    -1.82776051
H     -0.16889558     0.75431969    -1.75566421
O      2.87348724     1.80081730     1.18776222
H      3.38639870     1.31986940     0.50666645
H      2.49979272     2.52576348     0.64002940
O     -1.99718490    -3.22635454     1.85689617
H     -2.94058493    -3.16892424     1.64269976
H     -1.37292839    -3.14536122     1.11427458
O     -3.94733887     0.84877738     0.65391635
H     -4.03154766     0.40075424     1.52156726
H     -2.98002831     0.98732504     0.52094560
O     -0.01442902    -0.56627745     2.57969855
H      0.30026634    -1.32461171     2.03824273
H     -0.10226855    -0.78907584     3.55480693
O      1.14348915     3.45605535    -0.42527922
H      1.53509026     4.36578690    -0.41547205
H      0.24642461     3.74340473    -0.11388078
O     -3.01168491     0.87331278     3.01907885
H     -2.31182478     0.23626876     2.82430588
H     -2.50774577     1.55471230     3.48483493
O     -4.38873324    -5.10036769    -8.58748272
H     -4.15840005    -5.53863048    -9.41732389
H     -4.87473116    -4.33444985    -8.78302613
O      0.29463535     5.29538261     2.44414048
H     -0.20265661     5.13638565     3.24512647
H      1.27171914     5.07503317     2.53652582
O     -0.95746807     2.81414114     4.97071523
H     -1.39289743     2.01748502     5.32961421
H     -0.49392632     2.59014032     4.15195173
O      2.33282902    -1.81794958    -0.38646452
H      2.77743160    -2.51868746     0.07732416
H      1.35059433    -1.93586695    -0.23161983
O      3.61578632     0.41709490    -1.08070945
H      3.62355036    -0.53117757    -1.12502415
H      2.62125450     0.66713622    -1.27029664
O     -3.96587048     3.54409684     0.96606721
H     -4.47322892     3.71936361     0.13132937
H     -4.10912360     2.56778562     1.13269186
O     -1.40145616     4.23181087     0.42239464
H     -2.28575710     3.97763095     0.78835556
H     -0.84497314     4.48521214     1.17980570
O      2.22946067     3.23471618     5.26424633
H      1.22694384     3.32067696     5.42862363
H      2.14908128     2.82782371     4.37754725
O      3.17700930    -0.44353404     3.15559319
H      3.72813449    -0.22718005     3.90693722
H      3.47449577     0.18193805     2.47419346
60
droplet n=20 rho=0.80 rep=4
O     -1.40725082     1.45298865     0.53726209
H     -0.93462947     1.62234828     1.36042660
H     -1.43953757     2.37700535     0.23219962
O      0.99735563     1.96957531     3.32922697
H      0.61962244     1.08446770     2.98723554
H      1.81107909     2.13619060     2.87485051
O     -2.77946530     1.55261326    -2.24325686
H     -3.08595663     1.42287847    -1.30798837
H     -2.48108245     2.42852336    -2.11833497
O     -0.52465690    -1.91932842    -0.58191468
H     -0.68908638    -2.32545340    -1.45654605
H     -0.76589233    -1.03657948    -0.69221171
O      0.49991204     0.57102147    -1.92976307
H      1.48331344     0.59705004    -1.97995795
H      0.15420511     1.14969444    -1.28221485
O      2.92294746     2.06301245     1.24191956
H      3.42380398     1.70484395     0.50981470
H      2.43197362     2.70419287     0.70128796
O     -1.77238144    -2.96108863     1.58328116
H     -1.39975971    -3.82046591     1.89426069
H     -1.42568814    -2.66191390     0.71360076
O     -4.19006615     0.72332758     0.29967692
H     -4.24516999    -0.14738130    -0.10968053
H     -3.36167696     0.75613152     0.82174389
O     -0.09195277    -0.66307285     2.37581807
H     -0.30541401    -1.46588567     1.92270488
H      0.80256662    -0.93566914     2.66070833
O      1.33707683     3.87496421    -0.77949365
H      1.33953293     4.38140231    -1.56861941
H      0.52134202     4.09569723    -0.26364711
O     -3.02484168     0.87225945     3.31846202
H     -3.30768970    -0.02344705     3.09421227
H     -2.03985983     0.82661433     3.38395140
O     -1.27841550    -1.72463384    -3.41047193
H     -0.56454889    -1.08183932    -3.42898530
H     -2.09934735    -1.13817429    -3.27642094
O      0.07717534     5.03797048     2.81524916
H     -0.36279491     5.11179747     3.65423270
H      0.74831819     4.40941806     2.95804419
O     -0.52481073     3.72559473     5.31506069
H     -1.34020570     3.76958218     5.83221438
H     -0.68698085     3.00318096     4.71004313
O      3.26146635    -2.48055439    -0.21859126
H      3.63445868    -2.50548919     0.67085574
H      2.31351674    -2.57071778    -0.35255251
O      3.74548246     0.29230406    -1.40824185
H      3.60019485    -0.60368973    -0.99196320
H      4.48885286     0.21276086    -1.93416285
O     -4.99602755     3.55325859     0.34963388
H     -4.94801191     3.32027296     1.24755917
H     -4.92693863     2.73600846    -0.10426661
O     -1.73694020     4.24399310     0.57840900
H     -2.69182580     4.34305115     0.65349239
H     -1.30675460     4.48793505     1.39838362
O      2.15716740     4.46450029     6.19505028
H      2.19600076     5.40541738     5.78535645
H      1.32425493     4.14235452     5.78142995
O      2.58635116    -0.70349664     3.01455601
H      2.98905183    -0.34841794     3.79322001
H      2.67765206    -0.05636904     2.28868086
60
droplet n=20 rho=0.60 rep=4
O     -1.51298804     1.51604836     0.50564852
H     -1.04036669     1.68540798     1.32881303
H     -1.54527480     2.44006505     0.20058605
O      1.13347807     2.02384194     3.53450635
H      0.75574488     1.13873432     3.19251492
H      1.94720153     2.19045723     3.08012989
O     -3.03834963     1.61405171    -2.53652287
H     -3.34484096     1.48431692    -1.60125439
H     -2.73996678     2.48996180    -2.41160099
O     -0.56994888    -2.21635733    -0.77658777
H     -0.73437837    -2.62248232    -1.65121914
H     -0.81118432    -1.33360839    -0.88688480
O      0.59273722     0.52892406    -2.20700532
H      1.57613862     0.55495263    -2.25720021
H      0.24703029     1.10759703    -1.55945711
O      3.23857128     2.16028075     1.22114632
H      3.73942780     1.80211224     0.48904146
H      2.74759744     2.80146117     0.68051472
O     -1.90550720    -3.39774572     1.62081746
H     -1.53288547    -4.25712300     1.93179699
H     -1.55881391    -3.09857099     0.75113706
O     -4.56470298     0.64816283     0.23055232
H     -4.61980681    -0.22254605    -0.17880514
H     -3.73631379     0.68096676     0.75261929
O     -0.05723955    -0.88573596     2.50621676
H     -0.27070079    -1.68854878     2.05310356
H      0.83727984    -1.15833225     2.79110701
O      1.46547982     4.16949213    -0.97017754
H      1.46793592     4.67593023    -1.75930330
H      0.64974501     4.39022515    -0.45433099
O     -3.28459445     0.80861318     3.54404811
H     -3.56744247    -0.08709332     3.31979836
H     -2.29961260     0.76296807     3.60953749
O     -1.38955030    -1.97681939    -3.85290001
H     -0.67568369    -1.33402487    -3.87141338
H     -2.21048216    -1.39035984    -3.71884902
O      0.11381749     5.40654176     3.02845289
H     -0.32615275     5.48036875     3.86743643
H      0.78496035     4.77798935     3.17124792
O     -0.58930400     3.95793551     5.74396770
H     -1.40469897     4.00192295     6.26112138
H     -0.75147412     3.23552173     5.13895013
O      3.59153962    -2.85391723    -0.31831211
H      3.96453196    -2.87885203     0.57113489
H      2.64359002    -2.94408062    -0.45227336
O      4.16362082     0.16914285    -1.65671487
H      4.01833321    -0.72685094    -1.24043622
H      4.90699122     0.08959965    -2.18263587
O     -5.47379149     3.75578177     0.29665185
H     -5.42577585     3.52279614     1.19457714
H     -5.40470256     2.93853164    -0.15724864
O     -1.90823263     4.56277301     0.56358247
H     -2.86311823     4.66183105     0.63866587
H     -1.47804703     4.80671496     1.38355709
O      2.36875039     4.81472400     6.68784906
H      2.40758374     5.75564109     6.27815523
H      1.53583791     4.49257823     6.27422874
O      2.88434009    -0.86052935     3.21665320
H      3.28704075    -0.50545065     3.99531720
H      2.97564098    -0.21340175     2.49077806
60
droplet n=20 rho=0.40 rep=4
O     -1.68032981     1.61584786     0.45561628
H     -1.20770846     1.78520749     1.27878078
H     -1.71261657     2.53986456     0.15055381
O      1.34890807     2.10972534     3.85938547
H      0.97117488     1.22461773     3.51739404
H      2.16263154     2.27634063     3.40500901
O     -3.44806498     1.71128539    -3.00065135
H     -3.75455632     1.58155060    -2.06538286
H     -3.14968214     2.58719548    -2.87572946
O     -0.64162885    -2.68644104    -1.08468117
H     -0.80605834    -3.09256603    -1.95931254
H     -0.88286428    -1.80369210    -1.19497820
O      0.73964414     0.46229989    -2.64577428
H      1.72304555     0.48832846    -2.69596917
H      0.39393721     1.04097285    -1.99822607
O      3.73808364     2.31421943     1.18827018
H      4.23894017     1.95605093     0.45616533
H      3.24710981     2.95539985     0.64763858
O     -2.11619461    -4.08880768     1.68022314
H     -1.74357288    -4.94818495     1.99120267
H     -1.76950131    -3.78963295     0.81054274
O     -5.15761046     0.52920563     0.12115438
H     -5.21271430    -0.34150324    -0.28820308
H     -4.32922127     0.56200957     0.64322135
O     -0.00230174    -1.23812689     2.71258823
H     -0.21576298    -2.04093972     2.25947504
H      0.89221765    -1.51072319     2.99747849
O      1.66869287     4.63561770    -1.27195755
H      1.67114897     5.14205580    -2.06108330
H      0.85295805     4.85635072    -0.75611100
O     -3.69568421     0.70788537     3.90106502
H     -3.97853223    -0.18782113     3.67681527
H     -2.71070236     0.66224026     3.96655440
O     -1.56543440    -2.37593311    -4.55309523
H     -0.85156778    -1.73313859    -4.57160861
H     -2.38636625    -1.78947356    -4.41904425
O      0.17180808     5.98984981     3.36587324
H     -0.26816217     6.06367680     4.20485678
H      0.84295093     5.36129739     3.50866826
O     -0.69137229     4.32564250     6.42276421
H     -1.50676726     4.36962995     6.93991790
H     -0.85354242     3.60322873     5.81774665
O      4.11391998    -3.44480847    -0.47613225
H      4.48691231    -3.46974327     0.41331474
H      3.16597037    -3.53497187    -0.61009351
O      4.82537467    -0.02577446    -2.04995308
H      4.68008706    -0.92176825    -1.63367443
H      5.56874507    -0.10531766    -2.57587408
O     -6.22990993     4.07629887     0.21280147
H     -6.18189429     3.84331324     1.11072676
H     -6.16082100     3.25904874    -0.24109902
O     -2.17932334     5.06728025     0.54011773
H     -3.13420894     5.16633829     0.61520113
H     -1.74913774     5.31122220     1.36009235
O      2.70360570     5.36899482     7.46776195
H      2.74243906     6.30991191     7.05806812
H      1.87069322     5.04684905     7.05414162
O      3.35594311    -1.10905235     3.53649614
H      3.75864378    -0.75397366     4.31516014
H      3.44724401    -0.46192475     2.81062099
60
droplet n=20 rho=0.20 rep=4
O     -2.02438779     1.82103761     0.35274901
H     -1.55176644     1.99039723     1.17591351
H     -2.05667454     2.74505431     0.04768653
O      1.79183640     2.28630331     4.52734332
H      1.41410320     1.40119569     4.18535189
H      2.60555986     2.45291859     4.07296686
O     -4.29044781     1.91119974    -3.95490861
H     -4.59693914     1.78146495    -3.01964013
H     -3.99206496     2.78710983    -3.82998672
O     -0.78900427    -3.65294238    -1.71812726
H     -0.95343376    -4.05906737    -2.59275863
H     -1.03023971    -2.77019344    -1.82842429
O      1.04168767     0.32531928    -3.54789189
H      2.02508907     0.35134785    -3.59808677
H      0.69598074     0.90399225    -2.90034367
O      4.76509088     2.63072040     1.12067621
H      5.26594740     2.27255189     0.38857135
H      4.27411704     3.27190082     0.58004461
O     -2.54937205    -5.50964464     1.80236239
H     -2.17675032    -6.36902191     2.11334192
H     -2.20267876    -5.21046991     0.93268199
O     -6.37663990     0.28462731    -0.10376994
H     -6.43174374    -0.58608157    -0.51312739
H     -5.54825071     0.31743125     0.41829703
O      0.11065148    -1.96264959     3.13689204
H     -0.10280976    -2.76546242     2.68377885
H      1.00517087    -2.23524589     3.42178229
O      2.08650289     5.59398105    -1.89242317
H      2.08895899     6.10041915    -2.68154893
H      1.27076807     5.81471407    -1.37657663
O     -4.54089284     0.50078701     4.63509881
H     -4.82374086    -0.39491948     4.41084905
H     -3.55591099     0.45514190     4.70058818
O     -1.92705555    -3.19651877    -5.99271039
H     -1.21318893    -2.55372425    -6.01122376
H     -2.74798740    -2.61005922    -5.85865940
O      0.29103786     7.18914263     4.05961610
H     -0.14893239     7.26296962     4.89859964
H      0.96218072     6.56059021     4.20241113
O     -0.90122672     5.08165532     7.81838319
H     -1.71662169     5.12564276     8.33553688
H     -1.06339684     4.35924154     7.21336563
O      5.18794425    -4.65969249    -0.80061358
H      5.56093659    -4.68462729     0.08883342
H      4.23999464    -4.74985588    -0.93457483
O      6.18595359    -0.42652828    -2.85845857
H      6.04066598    -1.32252207    -2.44217991
H      6.92932399    -0.50607148    -3.38437956
O     -7.78450430     4.73528832     0.04040344
H     -7.73648867     4.50230269     0.93832872
H     -7.71541538     3.91803820    -0.41349706
O     -2.73669117     6.10455706     0.49187376
H     -3.69157677     6.20361510     0.56695716
H     -2.30650557     6.34849901     1.31184838
O      3.39207481     6.50858652     9.07127817
H      3.43090817     7.44950361     8.66158434
H      2.55916234     6.18644075     8.65765784
O      4.32556821    -1.62002053     4.19409949
H      4.72826888    -1.26494184     4.97276349
H      4.41686911    -0.97289293     3.46822435
60
droplet-evaporation n=20 rep=4
O     -1.33291709     1.40865741     0.55948657
H     -0.86029574     1.57801703     1.38265107
H     -1.36520385     2.33267410     0.25442409
O      0.90166096     1.93142565     3.18491468
H      0.52392777     1.04631803     2.84292324
H      1.71538443     2.09804093     2.73053822
O     -2.59746849     1.50942176    -2.03708957
H     -2.90395982     1.37968698    -1.10182109
H     -2.29908564     2.38533186    -1.91216768
O     -0.49281643    -1.71051580    -0.44505865
H     -0.65724592    -2.11664079    -1.31969002
H     -0.73405187    -0.82776686    -0.55535568
O      0.43465553     0.60061613    -1.73486056
H      1.41805694     0.62664470    -1.78505544
H      0.08894860     1.17928910    -1.08731234
O      2.70106254     1.99463242     1.25652324
H      3.20191907     1.63646391     0.52441838
H      2.21008871     2.63581284     0.71589164
O     -1.67879345    -2.65411681     1.55689297
H     -1.30617172    -3.51349408     1.86787250
H     -1.33210016    -2.35494208     0.68721258
O     -3.92669484     0.77616873     0.34827182
H     -3.98179868    -0.09454015    -0.06108564
H     -3.09830565     0.80897266     0.87033879
O     -0.11635631    -0.50653972     2.28414724
H     -0.32981755    -1.30935255     1.83103404
H      0.77816308    -0.77913602     2.56903749
O      1.24680898     3.66790981    -0.64544205
H      1.24926508     4.17434791    -1.43456781
H      0.43107416     3.88864283    -0.12959551
O     -2.84223435     0.91700305     3.15987402
H     -3.12508237     0.02129655     2.93562427
H     -1.85725251     0.87135793     3.22536340
O     -1.20028725    -1.54734631    -3.09944308
H     -0.48642064    -0.90455179    -3.11795645
H     -2.02121910    -0.96088676    -2.96539209
O      0.05141574     4.77886326     2.66536601
H     -0.38855451     4.85269025     3.50434955
H      0.72255860     4.15031084     2.80816104
O     -0.47947168     3.56225817     5.01353721
H     -1.29486665     3.60624561     5.53069090
H     -0.64164180     2.83984439     4.40851965
O      3.02942340    -2.21807870    -0.14848707
H      3.40241574    -2.24301350     0.74095993
H      2.08147380    -2.30824209    -0.28244832
O      3.45152938     0.37888693    -1.23356424
H      3.30624177    -0.51710686    -0.81728559
H      4.19489978     0.29934372    -1.75948523
O     -4.66015744     3.41088392     0.38688048
H     -4.61214180     3.17789829     1.28480576
H     -4.59106851     2.59363379    -0.06702002
O     -1.61652088     4.01988945     0.58883211
H     -2.57140648     4.11894749     0.66391550
H     -1.18633528     4.26383139     1.40880673
O      4.71906888     8.52524252    11.83640116
H      4.75790224     9.46615961    11.42670733
H      3.88615641     8.20309676    11.42278083
O      2.37686366    -0.59310196     2.87248080
H      2.77956433    -0.23802327     3.65114480
H      2.46816456     0.05402564     2.14660566
60
droplet n=20 rho=0.80 rep=5
O     -0.97488287     0.83436931     0.62898505
H     -0.59261210     0.47233535     1.46634413
H     -1.17925206     1.78725037     0.67176024
O      0.78594858     2.13558486     3.68407832
H      0.33161317     1.33446549     4.02123342
H      1.55085465     1.99277676     3.13092827
O     -2.38838623     2.12230757    -2.54685669
H     -2.62817712     2.71520626    -1.87825862
H     -1.43930727     2.40719839    -2.80096090
O     -0.43031578    -2.50619556    -0.71313061
H     -0.26803339    -2.25185215    -1.64136372
H      0.45902114    -2.45026816    -0.26976605
O      0.50940124     0.93669973    -1.86815762
H      1.30305102     0.44812061    -1.74918389
H      0.09178392     0.97177467    -1.00539220
O      2.20942551     1.69452493     1.12912112
H      2.71046655     1.36487656     0.32912692
H      1.74727803     2.48350211     0.74612116
O     -2.50931358    -2.65377056     1.65248005
H     -3.20109146    -2.08318253     1.39306545
H     -1.92203528    -2.75489588     0.79616471
O     -3.78638071     0.45617302     0.10506080
H     -3.87080683     0.44937323    -0.87443710
H     -2.82101160     0.37363036     0.23917738
O     -0.25898955    -0.69592273     3.22541552
H     -0.99267448    -1.29716711     3.31778734
H      0.51313091    -1.14560252     3.20379985
O      0.81237894     3.81880846    -0.33962768
H      0.63393463     4.29481668     0.48839323
H      0.18646958     3.80248333    -1.05955154
O     -3.20686376     1.11117943     3.44103729
H     -3.46681378     0.18336025     3.63508287
H     -3.46790030     1.34106213     2.57896349
O     -0.93812788    -0.84791870    -3.53168056
H     -0.68881471    -0.11829922    -2.95036609
H     -1.85308759    -0.88122205    -3.60150301
O     -0.12174590     4.54860961     2.61800088
H      0.30470194     5.33411547     2.96707774
H      0.17348765     3.75033704     3.02628954
O     -1.24177169     3.48012347     5.84084074
H     -1.94926673     4.08895638     5.77335760
H     -1.57247318     2.78457840     5.27223497
O      3.96741080    -2.52910418    -0.05842353
H      3.59507533    -2.30262549     0.83634128
H      4.89352275    -2.69687220    -0.00614799
O      3.37429298    -0.09468624    -1.48334938
H      3.77032917    -0.94481390    -1.26842860
H      3.94774430     0.44772672    -2.03516741
O     -4.66918874     3.41359181     0.05595426
H     -4.37598034     2.55749019     0.37989354
H     -5.56250282     3.28036023    -0.26987243
O     -1.81700051     4.06638359    -0.21002650
H     -2.74952992     3.97211152    -0.25827459
H     -1.66678491     4.55736751     0.60689653
O      2.02856168     5.35991161     6.02720011
H      2.65867915     4.87331693     6.45595025
H      1.48692136     4.64493037     5.72761665
O      3.52006410    -0.94070820     2.16543931
H      4.05560481    -0.20214304     1.84198281
H      2.59978688    -0.87679901     1.87049543
60
droplet n=20 rho=0.60 rep=5
O     -1.04289158     0.82004682     0.62296666
H     -0.66062081     0.45801285     1.46032575
H     -1.24726076     1.77292787     0.66574186
O      0.89960492     2.20073203     3.94875953
H      0.44526950     1.39961267     4.28591463
H      1.66451098     2.05792393     3.39560948
O     -2.58082666     2.24723249    -2.88812052
H     -2.82061754     2.84013118    -2.21952245
H     -1.63174769     2.53212331    -3.14222473
O     -0.41420692    -2.86613319    -0.90001515
H     -0.25192453    -2.61178979    -1.82824826
H      0.47513000    -2.81020579    -0.45665060
O      0.59742126     0.89764067    -2.12208590
H      1.39107104     0.40906155    -2.00311216
H      0.17980395     0.93271561    -1.25932047
O      2.45722992     1.76235848     1.10422489
H      2.95827096     1.43271011     0.30423070
H      1.99508244     2.55133566     0.72122493
O     -2.74122495    -3.02322001     1.68251247
H     -3.43300282    -2.45263199     1.42309787
H     -2.15394665    -3.12434534     0.82619713
O     -4.11376010     0.38096930    -0.01157328
H     -4.19818622     0.37416952    -0.99107117
H     -3.14839098     0.29842664     0.12254331
O     -0.25962776    -0.91933478     3.45355558
H     -0.99331268    -1.52057917     3.54592740
H      0.51249270    -1.36901457     3.43193991
O      0.89129240     4.10044692    -0.46902949
H      0.71284809     4.57645513     0.35899142
H      0.26538304     4.08412179    -1.18895335
O     -3.52295035     1.08148035     3.66609369
H     -3.78290037     0.15366116     3.86013928
H     -3.78398689     1.31136305     2.80401990
O     -1.03073639    -1.02801250    -3.96880540
H     -0.78142321    -0.29839302    -3.38749094
H     -1.94569610    -1.06131585    -4.03862785
O     -0.08565041     4.88784752     2.80804327
H      0.34079743     5.67335338     3.15712013
H      0.20958315     4.08957495     3.21633193
O     -1.37743775     3.70934567     6.30849064
H     -2.08493279     4.31817858     6.24100751
H     -1.70813924     3.01380060     5.73988488
O      4.40941612    -2.89978660    -0.13137985
H      4.03708065    -2.67330791     0.76338496
H      5.33552808    -3.06755462    -0.07910431
O      3.77055154    -0.23265561    -1.74278654
H      4.16658774    -1.08278327    -1.52786576
H      4.34400286     0.30975735    -2.29460457
O     -5.13510149     3.60583745    -0.03732493
H     -4.84189310     2.74973583     0.28661435
H     -6.02841558     3.47260587    -0.36315161
O     -2.00197477     4.37082608    -0.30422422
H     -2.93450418     4.27655400    -0.35247230
H     -1.85175917     4.86181000     0.51269882
O      2.25982692     5.74091937     6.53927807
H      2.88994440     5.25432469     6.96802820
H      1.71818661     5.02593813     6.23969460
O      3.88556263    -1.12657923     2.26378134
H      4.42110335    -0.38801406     1.94032484
H      2.96528541    -1.06267003     1.96883746
60
droplet n=20 rho=0.40 rep=5
O     -1.15052347     0.79737977     0.61344185
H     -0.76825270     0.43534580     1.45080093
H     -1.35489266     1.75026082     0.65621704
O      1.07947964     2.30383522     4.36764914
H      0.62514422     1.50271585     4.70480424
H      1.84438570     2.16102712     3.81449909
O     -2.88538660     2.44494109    -3.42821126
H     -3.12517749     3.03783977    -2.75961319
H     -1.93630763     2.72983191    -3.68231547
O     -0.38871272    -3.43577745    -1.19578225
H     -0.22643033    -3.18143405    -2.12401536
H      0.50062420    -3.37985006    -0.75241769
O      0.73672345     0.83582506    -2.52395769
H      1.53037323     0.34724593    -2.40498396
H      0.31910613     0.87089999    -1.66119227
O      2.84940998     1.86971315     1.06482364
H      3.35045102     1.54006478     0.26482944
H      2.38726250     2.65869034     0.68182368
O     -3.10825236    -3.60791786     1.73004236
H     -3.80003023    -3.03732984     1.47062777
H     -2.52097406    -3.70904319     0.87372703
O     -4.63187703     0.26195044    -0.19616062
H     -4.71630315     0.25515066    -1.17565852
H     -3.66650792     0.17940778    -0.06204404
O     -0.26063780    -1.27291102     3.81461444
H     -0.99432272    -1.87415540     3.90698626
H      0.51148266    -1.72259081     3.79299877
O      1.01618237     4.54617338    -0.67382330
H      0.83773805     5.02218160     0.15419761
H      0.39027300     4.52984825    -1.39374716
O     -4.02319509     1.03447801     4.02227231
H     -4.28314512     0.10665882     4.21631790
H     -4.28423163     1.26436071     3.16019852
O     -1.17730040    -1.31303243    -4.66060763
H     -0.92798722    -0.58341295    -4.07929317
H     -2.09226011    -1.34633578    -4.73043008
O     -0.02852498     5.42473199     3.10880802
H      0.39792287     6.21023785     3.45788489
H      0.26670858     4.62645942     3.51709669
O     -1.59214548     4.07211715     7.04860243
H     -2.29964052     4.68095007     6.98111929
H     -1.92284697     3.37657208     6.47999667
O      5.10894229    -3.48643577    -0.24684193
H      4.73660682    -3.25995708     0.64792288
H      6.03505424    -3.65420378    -0.19456639
O      4.39767801    -0.45100859    -2.15337681
H      4.79371420    -1.30113625    -1.93845602
H      4.97112933     0.09140437    -2.70519483
O     -5.87246402     3.91008912    -0.18495038
H     -5.57925563     3.05398750     0.13898890
H     -6.76577811     3.77685753    -0.51077706
O     -2.29471861     4.85264265    -0.45330335
H     -3.22724802     4.75837057    -0.50155143
H     -2.14450301     5.34362657     0.36361969
O      2.62583177     6.34390961     7.34970254
H      3.25594925     5.85731494     7.77845267
H      2.08419146     5.62892838     7.05011907
O      4.46400768    -1.42074230     2.41941934
H      4.99954839    -0.68217714     2.09596284
H      3.54373046    -1.35683310     2.12447546
60
droplet n=20 rho=0.20 rep=5
O     -1.37181676     0.75077587     0.59385863
H     -0.98954599     0.38874190     1.43121772
H     -1.57618595     1.70365692     0.63663383
O      1.44930559     2.51581740     5.22889441
H      0.99497017     1.71469803     5.56604951
H      2.21421165     2.37300930     4.67574436
O     -3.51156782     2.85143384    -4.53864844
H     -3.75135871     3.44433253    -3.87005037
H     -2.56248886     3.13632466    -4.79275265
O     -0.33629615    -4.60697725    -1.80388521
H     -0.17401376    -4.35263385    -2.73211832
H      0.55304076    -4.55104985    -1.36052065
O      1.02313149     0.70873093    -3.35021400
H      1.81678127     0.22015181    -3.23124027
H      0.60551417     0.74380587    -2.48744858
O      3.65573989     2.09043648     0.98381389
H      4.15678093     1.76078811     0.18381969
H      3.19359241     2.87941366     0.60081393
O     -3.86286793    -4.81006813     1.82776476
H     -4.55464581    -4.23948011     1.56835016
H     -3.27558964    -4.91119346     0.97144942
O     -5.69713564     0.01724532    -0.57567583
H     -5.78156176     0.01044554    -1.55517373
H     -4.73176653    -0.06529734    -0.44155925
O     -0.26271446    -1.99987072     4.55695857
H     -0.99639938    -2.60111510     4.64933039
H      0.50940600    -2.44955051     4.53534290
O      1.27295859     5.46259576    -1.09488339
H      1.09451428     5.93860397    -0.26686248
H      0.64704923     5.44627063    -1.81480725
O     -5.05170812     0.93784027     4.75458256
H     -5.31165815     0.01002108     4.94862814
H     -5.31274466     1.16772297     3.89250876
O     -1.47863888    -1.89903901    -6.08296661
H     -1.22932570    -1.16941953    -5.50165215
H     -2.39359859    -1.93234237    -6.15278906
O      0.08892603     6.52857703     3.72718628
H      0.51537387     7.31408289     4.07626314
H      0.38415958     5.73030446     4.13547495
O     -2.03358879     4.81798246     8.57028680
H     -2.74108383     5.42681537     8.50280367
H     -2.36429028     4.12243739     8.00168104
O      6.54718184    -4.69259799    -0.48423424
H      6.17484637    -4.46611930     0.41053057
H      7.47329380    -4.86036600    -0.43195870
O      5.68706235    -0.89994661    -2.99755846
H      6.08309855    -1.75007427    -2.78263768
H      6.26051368    -0.35753365    -3.54937649
O     -7.38849588     4.53563652    -0.48847120
H     -7.09528749     3.67953491    -0.16453192
H     -8.28180997     4.40240494    -0.81429789
O     -2.89660570     5.84326699    -0.75981296
H     -3.82913511     5.74899491    -0.80806105
H     -2.74639010     6.33425091     0.05711007
O      3.37834494     7.58366942     9.01595118
H      4.00846241     7.09707474     9.44470132
H      2.83670462     6.86868818     8.71636772
O      5.65330205    -2.02554735     2.73941412
H      6.18884276    -1.28698219     2.41595763
H      4.73302483    -1.96163815     2.44447025
60
droplet-evaporation n=20 rep=5
O     -0.92707245     0.84443809     0.63321600
H     -0.54480168     0.48240412     1.47057509
H     -1.13144164     1.79731914     0.67599120
O      0.70604769     2.08978611     3.49800628
H      0.25171227     1.28866674     3.83516138
H      1.47095375     1.94697801     2.94485623
O     -2.25309978     2.03448481    -2.30694674
H     -2.49289066     2.62738349    -1.63834867
H     -1.30402081     2.31937563    -2.56105094
O     -0.44164038    -2.25315784    -0.58174996
H     -0.27935799    -1.99881444    -1.50998307
H      0.44769654    -2.19723044    -0.13838541
O      0.44752278     0.96415841    -1.68964495
H      1.24117256     0.47557929    -1.57067121
H      0.02990547     0.99923335    -0.82687953
O      2.03521793     1.64683766     1.14662328
H      2.53625897     1.31718929     0.34662908
H      1.57307045     2.43581484     0.76362332
O     -2.34627888    -2.39404599     1.63136713
H     -3.03805676    -1.82345797     1.37195253
H     -1.75900059    -2.49517132     0.77505179
O     -3.55623159     0.50904156     0.18705506
H     -3.64065771     0.50224177    -0.79244284
H     -2.59086248     0.42649890     0.32117164
O     -0.25854089    -0.53886309     3.06503207
H     -0.99222581    -1.14010747     3.15740389
H      0.51357957    -0.98854288     3.04341640
O      0.75690244     3.62081541    -0.24865765
H      0.57845812     4.09682362     0.57936327
H      0.13099307     3.60449028    -0.96858151
O     -2.98465352     1.13205801     3.28282166
H     -3.24460354     0.20423883     3.47686725
H     -3.24569006     1.36194072     2.42074786
O     -0.87302370    -0.72131197    -3.22437990
H     -0.62371053     0.00830750    -2.64306543
H     -1.78798341    -0.75461533    -3.29420235
O     -0.14712119     4.31012389     2.48440025
H      0.27932665     5.09562975     2.83347711
H      0.14811236     3.51185132     2.89268892
O     -1.14639786     3.31897927     5.51208083
H     -1.85389290     3.92781218     5.44459769
H     -1.47709935     2.62343420     4.94347506
O      3.65667914    -2.26851283    -0.00713492
H      3.28434367    -2.04203414     0.88762989
H      4.58279110    -2.43628085     0.04514062
O      3.09572149     0.00230682    -1.30096393
H      3.49175768    -0.84782084    -1.08604315
H      3.66917281     0.54471978    -1.85278196
O     -4.34165005     3.27844229     0.12152993
H     -4.04844166     2.42234068     0.44546921
H     -5.23496414     3.14521071    -0.20429675
O     -1.68696280     3.85235920    -0.14380510
H     -2.61949221     3.75808713    -0.19205318
H     -1.53674720     4.34334312     0.67311793
O      4.65931213     9.58999828    11.74114232
H      5.28942961     9.10340361    12.16989245
H      4.11767181     8.87501705    11.44155886
O      3.26311705    -0.81004007     2.09630443
H      3.79865776    -0.07147491     1.77284793
H      2.34283983    -0.74613087     1.80136055
60
droplet n=20 rho=0.80 rep=6
O     -0.95995154     0.97912525     1.10463666
H      0.00473365     0.77342490     0.95614215
H     -1.16120757     1.22127627     1.99402183
O      0.56252307     2.04295627     3.72862624
H      0.32255947     1.18184054     3.86953913
H      1.37757658     2.00702834     3.19738337
O     -2.34808165     1.71928492    -2.79516137
H     -3.14767142     2.23964574    -2.59862585
H     -1.50745586     2.19892348    -2.46270488
O     -0.73607719    -3.01052357    -0.98403440
H     -0.52488569    -2.63728041    -1.82894622
H     -1.24501646    -3.74973663    -1.17921383
O      0.35776207     2.01982532    -1.91107719
H      1.28470982     2.38789425    -1.81454398
H      0.06534777     1.95903682    -0.96867767
O      2.13725482     1.25897441     0.91174819
H      2.10426564     0.75239558     0.04103994
H      2.23640423     2.19881372     0.83600454
O     -2.28719687    -1.46161912     1.40964581
H     -3.02488009    -0.84648384     1.05836088
H     -1.75932616    -1.62968275     0.52547879
O     -3.33540152     0.48070634    -0.44438172
H     -3.19612760     0.33825079    -1.41226911
H     -2.46679990     0.92574795    -0.07618096
O     -0.37160483    -1.35233445     3.76485657
H     -1.04633154    -1.28397085     3.03720262
H     -0.54302918    -2.20890530     4.31089064
O      1.82309792     4.28455743     0.64394816
H      0.96557348     4.48555044     1.10588112
H      1.90758752     5.01086551     0.02033196
O     -3.32809144     1.78327238     3.09515730
H     -3.64433666     1.41646919     2.26604390
H     -3.44385274     1.16660210     3.85318289
O     -1.14704707    -0.92322830    -3.09033635
H     -0.82257842    -0.05752662    -2.85285579
H     -2.11798533    -0.78436780    -3.22528261
O     -0.58586936     4.44445299     2.54901490
H     -0.53123902     5.18752411     3.20478935
H     -0.39591065     3.62410473     2.97447289
O     -1.69663811     3.15368162     6.09950829
H     -0.96750872     3.12021441     5.38549708
H     -2.46206496     3.46257853     5.57078089
O      4.83796758    -2.70018630    -0.49922549
H      5.23159474    -2.33130337     0.30629859
H      4.16998575    -3.21905844     0.00299545
O      2.99801974    -0.21563880    -1.42243249
H      3.62186243    -0.92066459    -1.28721364
H      2.84610896    -0.14395934    -2.42946286
O     -5.30619029     2.74142547    -0.18353435
H     -4.93207946     1.82130200    -0.10225668
H     -5.83065298     2.67344067    -1.05250037
O     -2.37360439     3.84274491    -0.05789073
H     -3.23977282     3.83329557     0.35501801
H     -1.76669260     4.25471163     0.59595091
O      1.47453276     4.81182248     5.41252265
H      1.93878772     3.90454606     5.19246512
H      2.02433578     5.28946600     6.06154596
O      4.62606119    -0.74942161     1.63672622
H      4.99471080    -0.10176661     1.07759942
H      3.68243133    -0.70202360     1.71273042
60
droplet n=20 rho=0.60 rep=6
O     -1.00301164     0.96152697     1.14809202
H     -0.03832645     0.75582662     0.99959750
H     -1.20426767     1.20367799     2.03747719
O      0.66637019     2.10110814     3.99821666
H      0.42640659     1.23999241     4.13912954
H      1.48142370     2.06518021     3.46697379
O     -2.55508099     1.80850273    -3.15129978
H     -3.35467076     2.32886354    -2.95476425
H     -1.71445520     2.28814128    -2.81884328
O     -0.79220584    -3.44314994    -1.21053539
H     -0.58101434    -3.06990678    -2.05544721
H     -1.30114510    -4.18236300    -1.40571482
O      0.44299572     2.11605127    -2.16113201
H      1.36994347     2.48412020    -2.06459880
H      0.15058143     2.05526276    -1.21873249
O      2.38251344     1.28285279     0.87918471
H      2.34952427     0.77627397     0.00847645
H      2.48166285     2.22269210     0.80344105
O     -2.49648395    -1.71108451     1.41749672
H     -3.23416716    -1.09594924     1.06621179
H     -1.96861323    -1.87914815     0.53332970
O     -3.60933209     0.42187414    -0.60179630
H     -3.47005817     0.27941859    -1.56968369
H     -2.74073047     0.86691576    -0.23359554
O     -0.40944964    -1.63224165     4.04509499
H     -1.08417635    -1.56387805     3.31744104
H     -0.58087399    -2.48881250     4.59112906
O      2.00858616     4.62951161     0.61075964
H      1.15106172     4.83050462     1.07269260
H      2.09307576     5.35581969    -0.01285657
O     -3.64959071     1.81238954     3.31170363
H     -3.96583593     1.44558635     2.48259023
H     -3.76535201     1.19571926     4.06972922
O     -1.25623546    -1.09980634    -3.49048845
H     -0.93176680    -0.23410466    -3.25300790
H     -2.22717371    -0.96094585    -3.62543472
O     -0.60868670     4.77179839     2.74925358
H     -0.55405636     5.51486951     3.40502802
H     -0.41872799     3.95145013     3.17471157
O     -1.84066894     3.36295309     6.57911384
H     -1.11153954     3.32948588     5.86510264
H     -2.60609578     3.67185000     6.05038645
O      5.34360904    -3.09433397    -0.59817017
H      5.73723621    -2.72545104     0.20735391
H      4.67562722    -3.61320611    -0.09594923
O      3.34352044    -0.37595101    -1.68740956
H      3.96736312    -1.08097680    -1.55219071
H      3.19160966    -0.30427156    -2.69443993
O     -5.81732140     2.86681798    -0.32100360
H     -5.44321057     1.94669451    -0.23972593
H     -6.34178409     2.79883318    -1.18996962
O     -2.59324645     4.12562884    -0.12050318
H     -3.45941488     4.11617951     0.29240557
H     -1.98633466     4.53759556     0.53333847
O      1.68489301     5.16432018     5.87906977
H      2.14914797     4.25704376     5.65901224
H      2.23469602     5.64196370     6.52809308
O      5.10029066    -0.91889058     1.69266980
H      5.46894027    -0.27123558     1.13354300
H      4.15666080    -0.87149256     1.76867400
60
droplet n=20 rho=0.40 rep=6
O     -1.07115938     0.93367559     1.21686530
H     -0.10647420     0.72797524     1.06837078
H     -1.27241541     1.17582661     2.10625047
O      0.83072065     2.19314041     4.42487565
H      0.59075705     1.33202469     4.56578854
H      1.64577415     2.15721249     3.89363278
O     -2.88268213     1.94970054    -3.71493131
H     -3.68227190     2.47006136    -3.51839578
H     -2.04205634     2.42933910    -3.38247481
O     -0.88103612    -4.12783280    -1.56900024
H     -0.66984462    -3.75458964    -2.41391205
H     -1.38997539    -4.86704586    -1.76417967
O      0.57788816     2.26834031    -2.55687360
H      1.50483591     2.63640923    -2.46034039
H      0.28547386     2.20755180    -1.61447408
O      2.77066448     1.32064318     0.82764910
H      2.73767530     0.81406435    -0.04305915
H      2.86981389     2.26048249     0.75190545
O     -2.82770572    -2.10589327     1.42992173
H     -3.56538893    -1.49075799     1.07863680
H     -2.29983500    -2.27395690     0.54575471
O     -4.04285990     0.32876517    -0.85092366
H     -3.90358598     0.18630963    -1.81881105
H     -3.17425828     0.77380679    -0.48272289
O     -0.46934357    -2.07522821     4.48860572
H     -1.14407028    -2.00686461     3.76095178
H     -0.64076793    -2.93179906     5.03463980
O      2.30214343     5.17544276     0.55823484
H      1.44461900     5.37643578     1.02016780
H      2.38663303     5.90175084    -0.06538136
O     -4.15840166     1.85847091     3.65441405
H     -4.47464688     1.49166772     2.82530065
H     -4.27416296     1.24180063     4.41243964
O     -1.42903910    -1.37926217    -4.12377692
H     -1.10457045    -0.51356049    -3.88629637
H     -2.39997736    -1.24040167    -4.25872319
O     -0.64479786     5.28986154     3.06615517
H     -0.59016752     6.03293266     3.72192962
H     -0.45483915     4.46951328     3.49161316
O     -2.06861490     3.69415017     7.33814687
H     -1.33948551     3.66068295     6.62413566
H     -2.83404175     4.00304707     6.80941947
O      6.14384700    -3.71811969    -0.75476193
H      6.53747417    -3.34923676     0.05076215
H      5.47586518    -4.23699183    -0.25254099
O      3.89031653    -0.62966423    -2.10676740
H      4.51415921    -1.33469002    -1.97154855
H      3.73840574    -0.55798477    -3.11379777
O     -6.62624738     3.06526659    -0.53856510
H     -6.25213655     2.14514312    -0.45728742
H     -7.15071007     2.99728179    -1.40753111
O     -2.94085622     4.57332642    -0.21959484
H     -3.80702465     4.56387709     0.19331391
H     -2.33394443     4.98529315     0.43424681
O      2.01781320     5.72218986     6.61743626
H      2.48206816     4.81491344     6.39737873
H      2.56761622     6.19983338     7.26645957
O      5.85081538    -1.18709545     1.78120719
H      6.21946499    -0.53944045     1.22208040
H      4.90718552    -1.13969743     1.85721140
60
droplet n=20 rho=0.20 rep=6
O     -1.21127249     0.87641261     1.35826452
H     -0.24658730     0.67071226     1.20977000
H     -1.41252852     1.11856363     2.24764969
O      1.16862842     2.38236058     5.30209494
H      0.92866482     1.52124485     5.44300783
H      1.98368193     2.34643265     4.77085207
O     -3.55623652     2.24000603    -4.87376881
H     -4.35582629     2.76036685    -4.67723329
H     -2.71561073     2.71964459    -4.54131231
O     -1.06367293    -5.53555421    -2.30601101
H     -0.85248142    -5.16231106    -3.15092282
H     -1.57261219    -6.27476728    -2.50119044
O      0.85522965     2.58144956    -3.37052608
H      1.78217740     2.94951849    -3.27399287
H      0.56281535     2.52066106    -2.42812656
O      3.56871064     1.39834097     0.72169089
H      3.53572147     0.89176214    -0.14901736
H      3.66786005     2.33818028     0.64594724
O     -3.50870419    -2.91762784     1.45546778
H     -4.24638740    -2.30249256     1.10418286
H     -2.98083347    -3.08569147     0.57130076
O     -4.93420160     0.13733131    -1.36313440
H     -4.79492768    -0.00512424    -2.33102179
H     -4.06559998     0.58237292    -0.99493363
O     -0.59248667    -2.98601728     5.40047251
H     -1.26721338    -2.91765368     4.67281857
H     -0.76391103    -3.84258812     5.94650659
O      2.90570296     6.29788795     0.45024282
H      2.04817853     6.49888097     0.91217578
H      2.99019256     7.02419603    -0.17337338
O     -5.20452699     1.95321511     4.35903340
H     -5.52077220     1.58641192     3.52992000
H     -5.32028829     1.33654483     5.11705899
O     -1.78432680    -1.95382884    -5.42583045
H     -1.45985815    -1.08812716    -5.18834990
H     -2.75526506    -1.81496834    -5.56077672
O     -0.71904312     6.35500957     3.71771109
H     -0.66441278     7.09808069     4.37348554
H     -0.52908441     5.53466131     4.14316908
O     -2.53727628     4.37509786     8.89873369
H     -1.80814689     4.34163064     8.18472248
H     -3.30270313     4.68399476     8.37000629
O      7.78915198    -5.00063540    -1.07671767
H      8.18277915    -4.63175248    -0.27119359
H      7.12117015    -5.51950754    -0.57449673
O      5.01454003    -1.15130358    -2.96897536
H      5.63838271    -1.85632937    -2.83375651
H      4.86262924    -1.07962413    -3.97600573
O     -8.28941509     3.47328083    -0.98587581
H     -7.91530426     2.55315736    -0.90459813
H     -8.81387778     3.40529604    -1.85484182
O     -3.65554874     5.49380146    -0.42332924
H     -4.52171718     5.48435213    -0.01042050
H     -3.04863695     5.90576818     0.23051240
O      2.70230366     6.86918090     8.13553227
H      3.16655862     5.96190447     7.91547474
H      3.25210668     7.34682441     8.78455558
O      7.39390896    -1.73852993     1.96324182
H      7.76255857    -1.09087493     1.40411502
H      6.45027911    -1.69113191     2.03924602
60
droplet-evaporation n=20 rep=6
O     -0.92968010     0.99149691     1.07408736
H      0.03500508     0.78579657     0.92559285
H     -1.13093613     1.23364794     1.96347253
O      0.48951810     2.00207525     3.53910302
H      0.24955450     1.14095953     3.68001590
H      1.30457160     1.96614733     3.00786015
O     -2.20256023     1.65656442    -2.54479453
H     -3.00215000     2.17692524    -2.34825900
H     -1.36193444     2.13620298    -2.21233803
O     -0.69661851    -2.70638536    -0.82480322
H     -0.48542701    -2.33314220    -1.66971504
H     -1.20555777    -3.44559842    -1.01998266
O      0.29784244     1.95217807    -1.73528757
H      1.22479019     2.32024700    -1.63875436
H      0.00542814     1.89138956    -0.79288805
O      1.96483695     1.24218781     0.93464046
H      1.93184777     0.73560898     0.06393221
H      2.06398635     2.18202712     0.85889681
O     -2.14006715    -1.28624387     1.40412658
H     -2.87775037    -0.67110859     1.05284166
H     -1.61219644    -1.45430750     0.51995956
O     -3.14282715     0.52206562    -0.33371859
H     -3.00355322     0.37961008    -1.30160598
H     -2.27422553     0.96710724     0.03448217
O     -0.34499976    -1.15555847     3.56784775
H     -1.01972647    -1.08719487     2.84019380
H     -0.51642411    -2.01212932     4.11388182
O      1.69269888     4.04205314     0.66727984
H      0.83517445     4.24304616     1.12921280
H      1.77718848     4.76836122     0.04366363
O     -3.10207607     1.76280290     2.94292429
H     -3.41832128     1.39599971     2.11381089
H     -3.21783737     1.14613262     3.70094988
O     -1.07028716    -0.79909317    -2.80902768
H     -0.74581851     0.06660851    -2.57154713
H     -2.04122542    -0.66023267    -2.94397395
O     -0.56982867     4.21432776     2.40824624
H     -0.51519833     4.95739888     3.06402069
H     -0.37986996     3.39397950     2.83370423
O     -1.59538382     3.00656288     5.76234351
H     -0.86625443     2.97309566     5.04833230
H     -2.36081067     3.31545978     5.23361611
O     11.32806874    -7.68375589    -1.79422038
H     11.72169590    -7.31487296    -0.98869631
H     10.66008691    -8.20262803    -1.29199944
O      2.75513126    -0.10293861    -1.23615246
H      3.37897394    -0.80796440    -1.10093361
H      2.60322047    -0.03125916    -2.24318283
O     -4.94686290     2.65327399    -0.08689287
H     -4.57275207     1.73315052    -0.00561520
H     -5.47132559     2.58528919    -0.95585889
O     -2.21919507     3.64387627    -0.01387391
H     -3.08536350     3.63442694     0.39903483
H     -1.61228328     4.05584300     0.63996773
O      1.32664859     4.56401507     5.08453801
H      1.79090356     3.65673864     4.86448048
H      1.87645161     5.04165858     5.73356132
O      4.29267582    -0.63028420     1.59739764
H      4.66132543     0.01737081     1.03827084
H      3.34904597    -0.58288618     1.67340184
60
droplet n=20 rho=0.80 rep=7
O     -0.94405169     1.58303303     0.94031423
H     -0.05821718     1.68809588     1.35908351
H     -1.49608757     1.49956549     1.70718966
O      0.48523018     1.50528368     3.89356111
H      0.04573774     0.69387952     3.79996981
H      1.26861690     1.42684308     3.41443308
O     -2.84566673     2.33768597    -3.36428141
H     -3.37053614     3.03036209    -3.62135142
H     -2.01754971     2.63836103    -2.88123097
O     -0.88112685    -3.40292517    -0.86991206
H     -0.74797547    -2.72413241    -1.56338698
H     -0.54616996    -4.27846127    -1.11578295
O     -0.32737891     2.73620251    -1.85527469
H      0.16205537     3.47440550    -1.55658268
H     -0.80295834     2.43903246    -1.03483280
O      2.10142878     1.63209801     1.28027349
H      2.31448507     0.91291473     0.59324239
H      2.33956628     2.49834834     0.90317005
O     -2.42682793    -2.08573807     1.30930563
H     -2.71240760    -1.28891138     0.77874909
H     -1.94918093    -2.62420548     0.53526126
O     -3.01806378     0.22601062    -0.51267075
H     -2.64903610     0.35511894    -1.41606903
H     -2.47622206     0.70110795     0.09500096
O     -1.03572192    -1.00712636     3.69459513
H     -1.67021402    -1.19972390     3.02294445
H     -0.35862451    -1.65500915     3.72280965
O      2.15450451     4.53983519     1.22382188
H      1.22335237     4.44584163     1.45050869
H      2.44777216     4.47880403     2.12372254
O     -2.85455827     2.40962743     2.91667984
H     -3.79467020     2.54487225     2.99670844
H     -2.51191854     2.18724580     3.79678204
O     -0.52428401    -1.01299554    -2.83250320
H      0.08618051    -0.23488171    -2.72543093
H     -1.18780982    -0.68833943    -3.45486094
O     -0.66427505     4.23720731     2.34583330
H     -0.53298520     4.74551382     3.15085963
H     -1.47169267     3.76322007     2.53680624
O     -1.92038622     2.69872907     5.55173730
H     -1.89668597     1.79653474     5.96978250
H     -1.06069126     3.02882708     5.32145981
O      4.67453289    -2.68625299    -1.01235966
H      4.83364166    -2.42789451    -0.12551212
H      4.27726545    -3.60155942    -0.84008758
O      2.90771399    -0.34030801    -1.23091108
H      3.71018679    -0.85583784    -1.50005140
H      2.18124998    -0.87378782    -1.35533357
O     -5.30017869     2.10461489     0.31252599
H     -4.71330243     1.45647371    -0.08479360
H     -6.00797417     2.27467801    -0.25010360
O     -2.96681950     3.77362108    -0.60360644
H     -3.78026826     3.31739051    -0.31852349
H     -2.35656162     3.68198413     0.11008192
O      1.23349598     3.98239991     4.95609544
H      1.00905916     3.08702091     4.71347806
H      1.72282362     4.32846378     4.22599315
O      5.82159302    -0.30940384     1.89831536
H      5.54942470     0.51319107     1.45702863
H      5.42612783    -0.23568472     2.80028966
60
droplet n=20 rho=0.60 rep=7
O     -0.99783515     1.63028904     0.98283361
H     -0.11200065     1.73535190     1.40160290
H     -1.54987103     1.54682150     1.74970905
O      0.57563177     1.51413830     4.17431373
H      0.13613934     0.70273414     4.08072243
H      1.35901849     1.43569770     3.69518570
O     -3.09185823     2.49349203    -3.78718124
H     -3.61672765     3.18616815    -4.04425125
H     -2.26374122     2.79416709    -3.30413080
O     -0.92407166    -3.86479275    -1.08086628
H     -0.79092028    -3.18599999    -1.77434121
H     -0.58911477    -4.74032884    -1.32673717
O     -0.32983225     2.91358736    -2.09634140
H      0.15960204     3.65179034    -1.79764939
H     -0.80541168     2.61641730    -1.27589950
O      2.35808814     1.68850130     1.28153279
H      2.57114443     0.96931802     0.59450169
H      2.59622564     2.55475163     0.90442935
O     -2.63459631    -2.39977322     1.30541975
H     -2.92017598    -1.60294652     0.77486322
H     -2.15694931    -2.93824062     0.53137538
O     -3.26122156     0.15623772    -0.66607954
H     -2.89219389     0.28534605    -1.56947782
H     -2.71937984     0.63133505    -0.05840783
O     -1.10850010    -1.24947071     3.95295097
H     -1.74299219    -1.44206825     3.28130028
H     -0.43140269    -1.89735350     3.98116549
O      2.37996972     4.87874576     1.29289294
H      1.44881757     4.78475220     1.51957976
H      2.67323736     4.81771460     2.19279360
O     -3.13186152     2.53642621     3.15054001
H     -4.07197344     2.67167103     3.23056861
H     -2.78922179     2.31404458     4.03064221
O     -0.54879921    -1.19073944    -3.22675118
H      0.06166531    -0.41262561    -3.11967891
H     -1.21232502    -0.86608333    -3.84910892
O     -0.72378160     4.55201269     2.52344540
H     -0.59249174     5.06031920     3.32847173
H     -1.53119921     4.07802545     2.71441833
O     -2.05399277     2.83835458     6.02488520
H     -2.03029252     1.93616025     6.44293039
H     -1.19429782     3.16845259     5.79460771
O      5.16702963    -3.09143165    -1.17060669
H      5.32613840    -2.83307317    -0.28375915
H      4.76976219    -4.00673808    -0.99833461
O      3.23293334    -0.52253778    -1.45988747
H      4.03540614    -1.03806761    -1.72902779
H      2.50646932    -1.05601758    -1.58430997
O     -5.80762793     2.18760139     0.21988400
H     -5.22075168     1.53946021    -0.17743559
H     -6.51542342     2.35766450    -0.34274559
O     -3.24219385     4.02223913    -0.72274009
H     -4.05564261     3.56600856    -0.43765714
H     -2.63193597     3.93060218    -0.00905173
O      1.39655449     4.25198140     5.33036508
H      1.17211767     3.35660241     5.08774770
H      1.88588213     4.59804527     4.60026279
O      6.41512487    -0.42326264     2.01292982
H      6.14295655     0.39933227     1.57164309
H      6.01965968    -0.34954352     2.91490412
60
droplet n=20 rho=0.40 rep=7
O     -1.08295390     1.70507732     1.05012562
H     -0.19711940     1.81014017     1.46889490
H     -1.63498979     1.62160978     1.81700106
O      0.71870309     1.52815179     4.61863825
H      0.27921066     0.71674763     4.52504696
H      1.50208981     1.44971119     4.13951022
O     -3.48148567     2.74007372    -4.45647069
H     -4.00635509     3.43274983    -4.71354070
H     -2.65336866     3.04074877    -3.97342025
O     -0.99203695    -4.59575331    -1.41472651
H     -0.85888557    -3.91696054    -2.10820143
H     -0.65708006    -5.47128940    -1.66059740
O     -0.33371494     3.19432004    -2.47785823
H      0.15571935     3.93252303    -2.17916622
H     -0.80929437     2.89714999    -1.65741633
O      2.76428220     1.77776624     1.28352579
H      2.97733850     1.05858296     0.59649469
H      3.00241971     2.64401657     0.90642235
O     -2.96341456    -2.89677130     1.29926990
H     -3.24899423    -2.09994461     0.76871336
H     -2.48576756    -3.43523871     0.52522553
O     -3.64604778     0.04581379    -0.90886727
H     -3.27702010     0.17492211    -1.81226554
H     -3.10420606     0.52091112    -0.30119555
O     -1.22368025    -1.63300955     4.36182990
H     -1.85817235    -1.82560709     3.69017921
H     -0.54658284    -2.28089234     4.39004442
O      2.73679531     5.41511218     1.40220614
H      1.80564317     5.32111862     1.62889295
H      3.03006295     5.35408102     2.30210680
O     -3.57072700     2.73710041     3.52065165
H     -4.51083892     2.87234523     3.60068025
H     -3.22808727     2.51471878     4.40075385
O     -0.58759745    -1.47204038    -3.85069566
H      0.02286707    -0.69392655    -3.74362339
H     -1.25112326    -1.14738426    -4.47305340
O     -0.81795781     5.05022977     2.80453774
H     -0.68666795     5.55853628     3.60956407
H     -1.62537542     4.57624253     2.99551067
O     -2.26544109     3.05932860     6.77369821
H     -2.24174084     2.15713427     7.19174340
H     -1.40574614     3.38942661     6.54342072
O      5.94646449    -3.73267523    -1.42105149
H      6.10557326    -3.47431675    -0.53420396
H      5.54919705    -4.64798166    -1.24877942
O      3.74763175    -0.81093813    -1.82226994
H      4.55010455    -1.32646796    -2.09141026
H      3.02116774    -1.34441794    -1.94669244
O     -6.61072692     2.31893741     0.07326700
H     -6.02385067     1.67079623    -0.32405259
H     -7.31852241     2.48900053    -0.48936260
O     -3.67800661     4.41570686    -0.91128331
H     -4.49145537     3.95947629    -0.62620036
H     -3.06774873     4.32406991    -0.19759495
O      1.65461404     4.67862627     5.92269146
H      1.43017723     3.78324728     5.68007407
H      2.14394168     5.02469015     5.19258916
O      7.35445985    -0.60345779     2.19432087
H      7.08229153     0.21913712     1.75303414
H      6.95899466    -0.52973867     3.09629517
60
droplet n=20 rho=0.20 rep=7
O     -1.25795973     1.85884349     1.18847930
H     -0.37212523     1.96390635     1.60724858
H     -1.80999561     1.77537595     1.95535474
O      1.01286053     1.55696381     5.53217821
H      0.57336810     0.74555964     5.43858691
H      1.79624725     1.47852321     5.05305018
O     -4.28256735     3.24705050    -5.83254295
H     -4.80743676     3.93972662    -6.08961296
H     -3.45445033     3.54772556    -5.34949251
O     -1.13177491    -6.09862259    -2.10114970
H     -0.99862353    -5.41982982    -2.79462463
H     -0.79681802    -6.97415868    -2.34702060
O     -0.34169783     3.77151197    -3.26226433
H      0.14773646     4.50971496    -2.96357232
H     -0.81727726     3.47434192    -2.44182244
O      3.59942518     1.96129670     1.28762342
H      3.81248147     1.24211342     0.60059232
H      3.83756268     2.82754703     0.91051998
O     -3.63947134    -3.91860915     1.28662567
H     -3.92505101    -3.12178245     0.75606913
H     -3.16182434    -4.45707655     0.51258130
O     -4.43725805    -0.18122000    -1.40804360
H     -4.06823037    -0.05211168    -2.31144187
H     -3.89541633     0.29387733    -0.80037188
O     -1.46049291    -2.42157296     5.20249303
H     -2.09498501    -2.61417050     4.53084234
H     -0.78339550    -3.06945575     5.23070755
O      3.47043574     6.51789208     1.62695622
H      2.53928360     6.42389852     1.85364303
H      3.76370339     6.45686093     2.52685688
O     -4.47304305     3.14969052     4.28160844
H     -5.41315498     3.28493534     4.36163705
H     -4.13040332     2.92730889     5.16171064
O     -0.66736738    -2.05040062    -5.13353778
H     -0.05690287    -1.27228680    -5.02646551
H     -1.33089319    -1.72574451    -5.75589551
O     -1.01158595     6.07457389     3.38246911
H     -0.88029609     6.58288040     4.18749544
H     -1.81900356     5.60058665     3.57344205
O     -2.70018299     3.51365553     8.31327247
H     -2.67648274     2.61146121     8.73131766
H     -1.84048804     3.84375355     8.08299498
O      7.54899789    -5.05108464    -1.93597094
H      7.70810666    -4.79272616    -1.04912340
H      7.15173045    -5.96639107    -1.76369886
O      4.80586182    -1.40389493    -2.56733542
H      5.60833462    -1.91942476    -2.83647574
H      4.07939781    -1.93737473    -2.69175792
O     -8.26191423     2.58896687    -0.22818045
H     -7.67503798     1.94082569    -0.62550004
H     -8.96970972     2.75902998    -0.79081004
O     -4.57404622     5.22468425    -1.29893187
H     -5.38749498     4.76845368    -1.01384892
H     -3.96378834     5.13304730    -0.58524351
O      2.18518955     5.55581653     7.14052612
H      1.96075274     4.66043754     6.89790873
H      2.67451719     5.90188041     6.41042382
O      9.28575103    -0.97394255     2.56726444
H      9.01358271    -0.15134764     2.12597771
H      8.89028584    -0.90022343     3.46923874
60
droplet-evaporation n=20 rep=7
O     -0.90624168     1.54981185     0.91042291
H     -0.02040717     1.65487470     1.32919220
H     -1.45827756     1.46634431     1.67729835
O      0.42167746     1.49905884     3.69619080
H     -0.01781497     0.68765468     3.60259951
H      1.20506418     1.42061825     3.21706277
O     -2.67259303     2.22815364    -3.06698100
H     -3.19746245     2.92082975    -3.32405101
H     -1.84447601     2.52882870    -2.58393056
O     -0.85093647    -3.07823027    -0.72161033
H     -0.71778509    -2.39943750    -1.41508525
H     -0.51597957    -3.95376636    -0.96748122
O     -0.32565421     2.61150019    -1.68580375
H      0.16378008     3.34970318    -1.38711174
H     -0.80123364     2.31433014    -0.86536186
O      1.92099614     1.59244625     1.27938820
H      2.13405243     0.87326297     0.59235709
H      2.15913364     2.45869658     0.90228475
O     -2.28076587    -1.86497001     1.31203741
H     -2.56634553    -1.06814331     0.78148088
H     -1.80311886    -2.40343741     0.53799304
O     -2.84712280     0.27506127    -0.40482370
H     -2.47809512     0.40416959    -1.30822198
H     -2.30528108     0.75015860     0.20284801
O     -0.98455855    -0.83675723     3.51296986
H     -1.61905064    -1.02935478     2.84131918
H     -0.30746114    -1.48464003     3.54118438
O      1.99600150     4.30157959     1.17526463
H      1.06484935     4.20758603     1.40195144
H      2.28926914     4.24054844     2.07516528
O     -2.65961289     2.32048733     2.75227512
H     -3.59972481     2.45573215     2.83230372
H     -2.31697316     2.09810571     3.63237732
O     -0.50704971    -0.88804081    -2.55534516
H      0.10341481    -0.10992698    -2.44827289
H     -1.17057552    -0.56338470    -3.17770290
O     -0.62244169     4.01589776     2.22097123
H     -0.49115184     4.52420427     3.02599756
H     -1.42985931     3.54191052     2.41194416
O     -1.82646023     2.60057174     5.21911228
H     -1.80275998     1.69837741     5.63715747
H     -0.96676528     2.93066975     4.98883479
O     11.72713938    -8.57812579    -3.36614264
H     11.88624815    -8.31976731    -2.47929510
H     11.32987194    -9.49343221    -3.19387056
O      2.67908339    -0.21219970    -1.06993968
H      3.48155619    -0.72772953    -1.33908000
H      1.95261938    -0.74567950    -1.19436218
O     -4.94343967     2.04627503     0.37765371
H     -4.35656341     1.39813385    -0.01966588
H     -5.65123515     2.21633815    -0.18497588
O     -2.77323014     3.59884152    -0.51985497
H     -3.58667890     3.14261095    -0.23477202
H     -2.16297226     3.50720457     0.19383339
O      1.11886514     3.79288295     4.69298226
H      0.89442833     2.89750396     4.45036488
H      1.60819278     4.13894683     3.96287997
O      5.40433756    -0.22936061     1.81774090
H      5.13216924     0.59323430     1.37645417
H      5.00887237    -0.15564148     2.71971520
72
droplet n=24 rho=0.80 rep=0
O      0.24649992    -2.39426366     1.56042949
H     -0.64197986    -2.74509614     1.72482968
H      0.21395774    -1.54592019     1.11903017
O      1.93183445    -1.27667056    -2.42206949
H      2.65297564    -0.79494186    -2.02036925
H      2.10854214    -2.22382281    -2.36694928
O      0.61511112     0.44122529    -0.29356929
H      0.56093128    -0.36016495    -0.84142226
H      1.17046539     1.07654637    -0.79677806
O      1.54239770    -1.48178728     4.10784301
H      1.49366057    -2.03360035     3.27916081
H      2.31290438    -1.80928570     4.54219433
O     -1.82001668    -1.03861070    -1.64796974
H     -2.43028158    -1.14234265    -2.43809759
H     -2.42433151    -0.96523449    -0.93421058
O     -1.37858880     5.15582979     1.49491733
H     -2.33614389     5.32590194     1.35815977
H     -1.43228776     4.30779217     1.98328545
O      1.61720296     2.32848969    -2.26577636
H      1.70492749     1.41661846    -2.68025528
H      1.73795226     2.82158713    -3.08680862
O      1.33308983     1.08779574     2.54794984
H      1.22289447     0.31354889     3.13399235
H      1.21253979     0.69972477     1.66703063
O      4.27117681    -0.23348704    -1.19492604
H      4.64918112    -1.02351725    -0.70036939
H      4.24198634     0.62059407    -0.69871760
O     -1.28863845     4.62629049    -1.78526128
H     -0.99940787     5.26247941    -2.41675642
H     -0.86985509     4.75555386    -0.94223188
O     -3.57327241    -1.46076306     1.19676186
H     -4.39430180    -0.92289940     1.26690625
H     -3.03560568    -0.98716748     1.89091904
O     -1.55062566    -3.85989585    -1.49641113
H     -2.03579522    -3.90801496    -2.37259747
H     -1.50154503    -2.89094804    -1.41057770
O     -0.99454924    -2.91069507     5.62540631
H     -0.32009507    -2.66761437     5.00598348
H     -0.71410279    -2.39748408     6.37883823
O     -0.45205611     1.52319289     5.08984937
H      0.45702032     1.45621486     4.75511269
H     -0.90588093     2.13457206     4.48161788
O     -3.86562538    -1.71129808    -3.92103399
H     -4.27042317    -0.86633623    -3.66617228
H     -2.95190764    -1.58932249    -4.28081857
O     -0.76194354    -0.74887032    -4.55254986
H     -1.00376291     0.11303815    -4.16345759
H      0.05712501    -0.98379048    -4.00632389
O      2.16001921    -4.17055712    -2.17923425
H      1.67879672    -4.47764484    -1.35665078
H      1.92593149    -4.60144339    -2.96522789
O      0.55647577    -5.22905207    -0.02200094
H     -0.27879233    -4.77917503    -0.22197766
H      0.40915961    -5.93727554     0.67977925
O     -1.37314171     2.43536417     2.49295213
H     -1.80234071     2.27869868     1.68736598
H     -0.44020207     2.26859154     2.36636223
O      3.41173216     2.17640952     0.37217090
H      2.90163670     2.48515366    -0.36268754
H      2.73266229     1.98146328     1.05281324
O     -1.60851382    -0.76861076     3.36096348
H     -1.58917987    -1.16289289     4.23709899
H     -1.79239217     0.13776032     3.57403648
O      0.83242892     1.69299050    -5.38588051
H      1.41661479     1.68622784    -6.12453290
H      0.20424767     0.99646568    -5.45691159
O     -1.93644909     2.09515614    -0.31977800
H     -1.19341308     1.52456059    -0.60196025
H     -1.79166692     2.82818432    -0.90126756
O     -3.91305931     1.16981256    -2.61789217
H     -3.58488534     2.02875017    -2.85930360
H     -3.71097097     1.19810312    -1.66766190
72
droplet n=24 rho=0.60 rep=0
O      0.26470979    -2.61064054     1.71994021
H     -0.62376999    -2.96147302     1.88434041
H      0.23216761    -1.76229707     1.27854090
O      2.18067898    -1.41287419    -2.63874929
H      2.90182017    -0.93114549    -2.23704906
H      2.35738667    -2.36002643    -2.58362908
O      0.71813001     0.48795743    -0.34661732
H      0.66395016    -0.31343281    -0.89447029
H      1.27348427     1.12327852    -0.84982610
O      1.74614136    -1.65251925     4.51979540
H      1.69740422    -2.20433231     3.69111321
H      2.51664803    -1.98001767     4.95414673
O     -2.01963416    -1.13625999    -1.80462942
H     -2.62989906    -1.23999193    -2.59475728
H     -2.62394898    -1.06288377    -1.09087026
O     -1.52695885     5.65987830     1.66892302
H     -2.48451393     5.82995045     1.53216546
H     -1.58065781     4.81184068     2.15729114
O      1.81125543     2.55668308    -2.52349990
H      1.89897996     1.64481186    -2.93797882
H      1.93200473     3.04978052    -3.34453215
O      1.48381376     1.16617867     2.80624726
H      1.37361841     0.39193183     3.39228976
H      1.36326373     0.77810771     1.92532804
O      4.73703967    -0.24693963    -1.27019066
H      5.11504398    -1.03696984    -0.77563402
H      4.70784920     0.60714148    -0.77398223
O     -1.37027858     5.12546790    -1.94607990
H     -1.08104800     5.76165682    -2.57757503
H     -0.95149522     5.25473127    -1.10305050
O     -3.91810179    -1.56594851     1.35460520
H     -4.73913119    -1.02808486     1.42474959
H     -3.38043507    -1.09235293     2.04876238
O     -1.69701457    -4.20957625    -1.66176996
H     -2.18218413    -4.25769536    -2.53795629
H     -1.64793394    -3.24062844    -1.57593652
O     -1.03830909    -3.17036541     6.20781442
H     -0.36385492    -2.92728471     5.58839158
H     -0.75786265    -2.65715443     6.96124634
O     -0.45798011     1.70265136     5.58222787
H      0.45109632     1.63567333     5.24749118
H     -0.91180493     2.31403052     4.97399637
O     -4.21329880    -1.84319158    -4.30741827
H     -4.61809659    -0.99822973    -4.05255656
H     -3.29958106    -1.72121599    -4.66720285
O     -0.79496265    -0.79530720    -4.96759396
H     -1.03678202     0.06660127    -4.57850170
H      0.02410590    -1.03022735    -4.42136800
O      2.37771139    -4.60715187    -2.38557220
H      1.89648890    -4.91423958    -1.56298874
H      2.14362367    -5.03803813    -3.17156584
O      0.60381710    -5.75608601     0.00437703
H     -0.23145100    -5.30620897    -0.19559970
H      0.45650094    -6.46430948     0.70615722
O     -1.47013930     2.67751194     2.72433466
H     -1.89933831     2.52084645     1.91874850
H     -0.53719967     2.51073931     2.59774476
O      3.73950312     2.40716363     0.41956621
H      3.22940766     2.71590777    -0.31529222
H      3.06043325     2.21221739     1.10020855
O     -1.75161910    -0.82088895     3.74751711
H     -1.73228516    -1.21517107     4.62365262
H     -1.93549745     0.08548214     3.96059011
O      0.93903013     1.84768101    -5.94333342
H      1.52321599     1.84091834    -6.68198581
H      0.31084887     1.15115619    -6.01436450
O     -2.07725447     2.31936429    -0.36917728
H     -1.33421846     1.74876874    -0.65135953
H     -1.93247230     3.05239247    -0.95066685
O     -4.26479061     1.32520695    -2.84582613
H     -3.93661664     2.18414456    -3.08723756
H     -4.06270227     1.35349751    -1.89559586
72
droplet n=24 rho=0.40 rep=0
O      0.29352908    -2.95308276     1.97238497
H     -0.59495069    -3.30391525     2.13678517
H      0.26098690    -2.10473930     1.53098566
O      2.57450514    -1.62843268    -2.98167094
H      3.29564633    -1.14670398    -2.57997070
H      2.75121283    -2.57558493    -2.92655072
O      0.88116969     0.56191663    -0.43057217
H      0.82698984    -0.23947361    -0.97842513
H      1.43652395     1.19723772    -0.93378094
O      2.06859001    -1.92272295     5.17175923
H      2.01985287    -2.47453602     4.34307703
H      2.83909668    -2.25022137     5.60611055
O     -2.33555263    -1.29080163    -2.05256206
H     -2.94581753    -1.39453357    -2.84268991
H     -2.93986746    -1.21742541    -1.33880290
O     -1.76177214     6.45759521     1.94430779
H     -2.71932723     6.62766736     1.80755023
H     -1.81547111     5.60955759     2.43267591
O      2.11836661     2.91782636    -2.93137814
H      2.20609114     2.00595514    -3.34585706
H      2.23911591     3.41092380    -3.75241040
O      1.72235238     1.29022902     3.21503373
H      1.61215703     0.51598218     3.80107624
H      1.60180235     0.90215806     2.33411452
O      5.47432324    -0.26822995    -1.38930592
H      5.85232755    -1.05826017    -0.89474927
H      5.44513276     0.58585115    -0.89309748
O     -1.49948382     5.91547572    -2.20059455
H     -1.21025324     6.55166464    -2.83208968
H     -1.08070046     6.04473909    -1.35756515
O     -4.46383545    -1.73241705     1.60441113
H     -5.28486484    -1.19455339     1.67455552
H     -3.92616872    -1.25882147     2.29856831
O     -1.92869250    -4.76298722    -1.92347002
H     -2.41386206    -4.81110633    -2.79965636
H     -1.87961187    -3.79403941    -1.83763659
O     -1.10756429    -3.58132471     7.12954474
H     -0.43311012    -3.33824402     6.51012191
H     -0.82711784    -3.06811373     7.88297666
O     -0.46735554     1.98666579     6.36147559
H      0.44172089     1.91968776     6.02673890
H     -0.92118036     2.59804495     5.75324409
O     -4.76353348    -2.05192878    -4.91891750
H     -5.16833127    -1.20696694    -4.66405579
H     -3.84981573    -1.92995319    -5.27870208
O     -0.84721932    -0.86879910    -5.62445078
H     -1.08903870    -0.00689063    -5.23535852
H     -0.02815077    -1.10371926    -5.07822482
O      2.72223525    -5.29811514    -2.71212663
H      2.24101276    -5.60520286    -1.88954317
H      2.48814753    -5.72900141    -3.49812027
O      0.67874041    -6.59018011     0.04612330
H     -0.15652770    -6.14030307    -0.15385343
H      0.53142425    -7.29840357     0.74790349
O     -1.62364957     3.06073969     3.09052512
H     -2.05284857     2.90407420     2.28493897
H     -0.69070993     2.89396705     2.96393522
O      4.25823977     2.77235955     0.49457496
H      3.74814432     3.08110369    -0.24028347
H      3.57916991     2.57741331     1.17521730
O     -1.97810029    -0.90362542     4.35928435
H     -1.95876635    -1.29790754     5.23541987
H     -2.16197864     0.00274567     4.57235736
O      1.10773926     2.09249719    -6.82556917
H      1.69192512     2.08573453    -7.56422156
H      0.47955800     1.39597237    -6.89660025
O     -2.30009579     2.67420043    -0.44735754
H     -1.55705978     2.10360489    -0.72953979
H     -2.15531361     3.40722862    -1.02884711
O     -4.82144737     1.57113712    -3.20655882
H     -4.49327340     2.43007473    -3.44797025
H     -4.61935903     1.59942768    -2.25632856
72
droplet n=24 rho=0.20 rep=0
O      0.35278212    -3.65715072     2.49141636
H     -0.53569766    -4.00798320     2.65581655
H      0.32023994    -2.80880725     2.05001705
O      3.38421947    -2.07162518    -3.68672458
H      4.10536066    -1.58989648    -3.28502434
H      3.56092716    -3.01877742    -3.63160436
O      1.21638248     0.71397819    -0.60318498
H      1.16220263    -0.08741204    -1.15103795
H      1.77173674     1.34929928    -1.10639375
O      2.73155077    -2.47826708     6.51220967
H      2.68281364    -3.03008015     5.68352747
H      3.50205745    -2.80576550     6.94656099
O     -2.98508722    -1.60854228    -2.56231644
H     -3.59535213    -1.71227422    -3.35244430
H     -3.58940205    -1.53516606    -1.84855728
O     -2.24455290     8.09771687     2.51050429
H     -3.20210799     8.26778901     2.37374672
H     -2.29825187     7.24967925     2.99887241
O      2.74979324     3.66034404    -3.76998383
H      2.83751777     2.74847281    -4.18446275
H      2.87054254     4.15344147    -4.59101608
O      2.21279247     1.54527897     4.05550677
H      2.10259712     0.77103213     4.64154928
H      2.09224244     1.15720801     3.17458756
O      6.99019274    -0.31200328    -1.63420922
H      7.36819705    -1.10203349    -1.13965258
H      6.96100227     0.54207783    -1.13800079
O     -1.76513234     7.53974733    -2.72388167
H     -1.47590177     8.17593625    -3.35537681
H     -1.34634899     7.66901070    -1.88085227
O     -5.58587458    -2.07467963     2.11801702
H     -6.40690397    -1.53681598     2.18816141
H     -5.04820785    -1.60108405     2.81217421
O     -2.40502686    -5.90081104    -2.46153051
H     -2.89019642    -5.94893015    -3.33771684
H     -2.35594623    -4.93186323    -2.37569708
O     -1.24995432    -4.42626513     9.02464040
H     -0.57550015    -4.18318443     8.40521757
H     -0.96950788    -3.91305414     9.77807232
O     -0.48663161     2.57060504     7.96362422
H      0.42244482     2.50362701     7.62888754
H     -0.94045643     3.18198421     7.35539273
O     -5.89482678    -2.48109658    -6.17617194
H     -6.29962458    -1.63613473    -5.92131023
H     -4.98110904    -2.35912098    -6.53595652
O     -0.95466008    -1.01989989    -6.97496132
H     -1.19647945    -0.15799142    -6.58586905
H     -0.13559153    -1.25482005    -6.42873536
O      3.43058308    -6.71874922    -3.38352896
H      2.94936059    -7.02583694    -2.56094550
H      3.19649536    -7.14963549    -4.16952260
O      0.83278419    -8.30509397     0.13195446
H     -0.00248391    -7.85521693    -0.06802227
H      0.68546803    -9.01331744     0.83373465
O     -1.93926969     3.84866346     3.84341991
H     -2.36846870     3.69199797     3.03783376
H     -1.00633006     3.68189082     3.71683001
O      5.32477254     3.52320954     0.64879442
H      4.81467708     3.83195368    -0.08606402
H      4.64570267     3.32826330     1.32943676
O     -2.44375007    -1.07373322     5.61708984
H     -2.42441612    -1.46801535     6.49322536
H     -2.62762842    -0.16736214     5.83016285
O      1.45460854     2.59584408    -8.63946322
H      2.03879441     2.58908141    -9.37811561
H      0.82642729     1.89931926    -8.71049430
O     -2.75826191     3.40375053    -0.60809770
H     -2.01522590     2.83315499    -0.89027995
H     -2.61347973     4.13677872    -1.18958727
O     -5.96594460     2.07677438    -3.94823233
H     -5.63777064     2.93571199    -4.18964376
H     -5.76385627     2.10506494    -2.99800206
72
droplet-evaporation n=24 rep=0
O      0.23369830    -2.24214978     1.44829275
H     -0.65478148    -2.59298226     1.61269295
H      0.20115612    -1.39380631     1.00689344
O      1.75689567    -1.18091882    -2.26974265
H      2.47803686    -0.69919012    -1.86804241
H      1.93360336    -2.12807107    -2.21462244
O      0.54268840     0.40837238    -0.25627629
H      0.48850855    -0.39301785    -0.80412926
H      1.09804266     1.04369347    -0.75948506
O      1.39916503    -1.36176197     3.81823869
H      1.35042789    -1.91357504     2.98955650
H      2.16967170    -1.68926039     4.25259001
O     -1.67968473    -0.96996284    -1.53783731
H     -2.28994964    -1.07369478    -2.32796516
H     -2.28399956    -0.89658662    -0.82407814
O     -1.27428402     4.80148151     1.37259057
H     -2.23183910     4.97155366     1.23583301
H     -1.32798298     3.95344389     1.86095870
O      1.48078324     2.16806875    -2.08459560
H      1.56850777     1.25619752    -2.49907452
H      1.60153254     2.66116618    -2.90562786
O      1.22713024     1.03269219     2.36636564
H      1.11693489     0.25844535     2.95240815
H      1.10658021     0.64462123     1.48544643
O      3.94367320    -0.22402981    -1.14201468
H      4.32167751    -1.01406003    -0.64745803
H      3.91448273     0.63005129    -0.64580624
O     -1.23124508     4.27536661    -1.67220509
H     -0.94201451     4.91155553    -2.30370023
H     -0.81246173     4.40462998    -0.82917570
O     -3.33085585    -1.38681723     1.08579730
H     -4.15188524    -0.84895357     1.15594169
H     -2.79318912    -0.91322165     1.77995449
O     -1.44771362    -3.61406901    -1.38016317
H     -1.93288318    -3.66218812    -2.25634950
H     -1.39863299    -2.64512120    -1.29432973
O     -1.30205778    -5.14882285    10.59156615
H     -0.62760361    -4.90574215     9.97214332
H     -1.02161133    -4.63561186    11.34499807
O     -0.44789152     1.39703282     4.74370516
H      0.46118491     1.33005479     4.40896847
H     -0.90171633     2.00841198     4.13547366
O     -3.62120946    -1.61857638    -3.64940417
H     -4.02600725    -0.77361453    -3.39454246
H     -2.70749172    -1.49660078    -4.00918875
O     -0.73873096    -0.71622499    -4.26077205
H     -0.98055034     0.14568348    -3.87167979
H      0.08033758    -0.95114515    -3.71454609
O      2.00698066    -3.86362913    -2.03417777
H      1.52575817    -4.17071685    -1.21159431
H      1.77289294    -4.29451540    -2.82017142
O      0.52319461    -4.85854493    -0.04054476
H     -0.31207349    -4.40866789    -0.24052149
H      0.37587845    -5.56676840     0.66123543
O     -1.30495198     2.26513324     2.33028921
H     -1.73415099     2.10846775     1.52470306
H     -0.37201234     2.09836061     2.20369931
O      3.18130775     2.01418838     0.33885178
H      2.67121230     2.32293252    -0.39600665
H      2.50223789     1.81924214     1.01949412
O     -1.50791018    -0.73185897     3.08921460
H     -1.48857624    -1.12614110     3.96535012
H     -1.69178853     0.17451212     3.30228760
O      0.75748781     1.58424241    -4.99398870
H      1.34167368     1.57747974    -5.73264109
H      0.12930656     0.88771759    -5.06501978
O     -1.83746230     1.93753684    -0.28505009
H     -1.09442629     1.36694129    -0.56723234
H     -1.69268013     2.67056503    -0.86653965
O     -3.66579068     1.06056963    -2.45765361
H     -3.33761671     1.91950724    -2.69906503
H     -3.46370234     1.08886019    -1.50742334
72
droplet n=24 rho=0.80 rep=1
O     -0.40543178    -1.92177569     1.33813355
H     -0.94471632    -1.50755222     1.98669635
H     -0.01791374    -1.30601880     0.68246568
O      1.95253764    -1.50556839    -2.57820578
H      2.74450641    -1.04526512    -2.17005305
H      2.16644365    -2.47954694    -2.44019645
O      0.45943656     0.29962146    -0.67740172
H      0.68333485    -0.21267548    -1.50146928
H      1.10852718     1.01836588    -0.56794704
O      2.07623049    -2.17722713     3.33268278
H      2.20094304    -2.49445291     2.42106730
H      2.85471970    -2.38294955     3.90181506
O     -1.95042346    -1.19129238    -1.33727132
H     -2.79700225    -1.14622457    -1.87552885
H     -2.17307314    -1.29710702    -0.45898855
O     -1.42781199     5.19451648     1.28129379
H     -1.21534609     5.84496427     1.95614599
H     -1.25170822     4.28703258     1.72496188
O      1.30400769     3.39793860    -1.84898807
H      1.39316038     3.19290381    -2.76065822
H      0.38277208     3.69016780    -1.79953462
O      1.30231995     0.80212000     2.69467429
H      1.47680920    -0.09856415     2.94753677
H      0.49915667     0.83864961     2.19537069
O      4.12952895    -0.14889925    -0.88435276
H      4.71804090     0.01411318    -0.21246833
H      3.33950092     0.36498147    -0.87760146
O     -1.24149749     4.66387902    -1.60697484
H     -1.68738498     5.49700896    -1.72617519
H     -1.10629669     4.56536195    -0.65156315
O     -3.74735325    -1.52797422     1.31894350
H     -3.74088327    -2.50340556     1.42122096
H     -3.47396001    -1.28325785     2.22390813
O     -1.01099291    -3.72010767    -2.06104560
H     -1.50565919    -3.77835173    -2.88523845
H     -1.16247564    -2.77248423    -1.89667794
O     -1.04082541    -2.43081919     5.96012924
H     -0.79176419    -2.56302612     6.91862830
H     -0.16402770    -2.46175970     5.49091241
O     -0.08939606     1.28968147     5.10422955
H      0.76720925     1.17017771     4.66792365
H     -0.39874470     2.19484049     5.12380983
O     -3.33133299    -1.75652906    -4.31905764
H     -3.90232904    -1.02110738    -4.15687371
H     -3.22747117    -1.75094093    -5.25725869
O     -0.23959175    -0.89704353    -4.53268272
H     -1.02806959    -0.92184467    -4.00313217
H      0.44519908    -1.36928536    -3.93461928
O      2.22541887    -4.05907672    -1.81446481
H      2.48686405    -4.43572108    -0.97312144
H      1.23634212    -4.16965592    -1.74513682
O      0.53324722    -5.25803546     0.46825755
H      0.21413163    -6.13392026     0.31460064
H     -0.12440096    -4.52901136     0.58968278
O     -1.65199105     2.18281754     1.95183417
H     -1.72694905     1.90128954     0.99803762
H     -2.43796589     1.84386373     2.35213858
O      3.27286552     2.49083086     0.63841505
H      2.67933468     3.21936329     0.30985010
H      3.15835938     2.40709656     1.57440733
O     -1.85496506    -0.57702624     3.70787316
H     -1.71976525    -1.19243081     4.46863023
H     -1.30155494     0.16554836     3.98345782
O      0.69382025     1.70520703    -4.87838365
H      1.10061779     1.69272630    -5.82128073
H      0.50283787     0.79546566    -4.56091813
O     -2.16892455     1.64679148    -0.80469491
H     -1.77900169     0.73096137    -1.00876146
H     -1.55414934     2.29533277    -1.07759031
O     -3.91941982     0.99023156    -3.11388219
H     -3.14492616     1.26177191    -3.63110593
H     -3.77192674     1.49996200    -2.32648032
72
droplet n=24 rho=0.60 rep=1
O     -0.42599678    -2.07102835     1.47917711
H     -0.96528132    -1.65680489     2.12773991
H     -0.03847874    -1.45527147     0.82350924
O      2.20812032    -1.66471869    -2.81275136
H      3.00008909    -1.20441542    -2.40459862
H      2.42202633    -2.63869724    -2.67474203
O      0.56029195     0.34630812    -0.76294160
H      0.78419024    -0.16598881    -1.58700916
H      1.20938258     1.06505255    -0.65348691
O      2.34081750    -2.40428587     3.66321151
H      2.46553004    -2.72151165     2.75159603
H      3.11930671    -2.61000829     4.23234379
O     -2.15725869    -1.30361857    -1.45384163
H     -3.00383748    -1.25855077    -1.99209916
H     -2.37990837    -1.40943322    -0.57555885
O     -1.53314489     5.71828851     1.45437874
H     -1.32067899     6.36873630     2.12923094
H     -1.35704112     4.81080460     1.89804683
O      1.43266191     3.75244675    -2.05739096
H      1.52181461     3.54741196    -2.96906112
H      0.51142630     4.04467595    -2.00793752
O      1.43762817     0.86346335     2.96421427
H      1.61211743    -0.03722081     3.21707675
H      0.63446489     0.89999295     2.46491067
O      4.56370439    -0.13157053    -0.94398072
H      5.15221634     0.03144190    -0.27209629
H      3.77367636     0.38231019    -0.93722942
O     -1.35153753     5.16751373    -1.73404297
H     -1.79742502     6.00064367    -1.85324332
H     -1.21633673     5.06899665    -0.77863128
O     -4.08977722    -1.69666063     1.49208451
H     -4.08330724    -2.67209197     1.59436197
H     -3.81638397    -1.45194426     2.39704914
O     -1.10908833    -4.05506561    -2.28400075
H     -1.60375461    -4.11330968    -3.10819360
H     -1.26057105    -3.10744218    -2.11963310
O     -1.08247686    -2.67132964     6.58299416
H     -0.83341563    -2.80353657     7.54149321
H     -0.20567915    -2.70227015     6.11377732
O     -0.05470400     1.45544112     5.61056038
H      0.80190131     1.33593737     5.17425447
H     -0.36405264     2.36060014     5.63014065
O     -3.65694755    -1.89884513    -4.77316253
H     -4.22794360    -1.16342346    -4.61097859
H     -3.55308572    -1.89325700    -5.71136358
O     -0.24185326    -0.99439245    -4.94442534
H     -1.03033110    -1.01919359    -4.41487479
H      0.44293757    -1.46663428    -4.34636190
O      2.45031022    -4.47433088    -1.95991729
H      2.71175541    -4.85097524    -1.11857392
H      1.46123347    -4.58491008    -1.89058930
O      0.57947657    -5.78253741     0.52091175
H      0.26036098    -6.65842221     0.36725484
H     -0.07817161    -5.05351331     0.64233698
O     -1.82180352     2.39129222     2.13631214
H     -1.89676152     2.10976423     1.18251559
H     -2.60777837     2.05233842     2.53661655
O      3.60383178     2.77275169     0.72965325
H      3.01030094     3.50128412     0.40108830
H      3.48932564     2.68901739     1.66564554
O     -1.99322208    -0.62122708     4.12241804
H     -1.85802228    -1.23663164     4.88317511
H     -1.43981197     0.12134753     4.39800271
O      0.79621807     1.85549121    -5.38372870
H      1.20301561     1.84301048    -6.32662578
H      0.60523569     0.94574985    -5.06626317
O     -2.32817526     1.81316794    -0.89507329
H     -1.93825240     0.89733783    -1.09913985
H     -1.71340005     2.46170923    -1.16796869
O     -4.25761936     1.12570677    -3.41159810
H     -3.48312570     1.39724712    -3.92882184
H     -4.11012628     1.63543721    -2.62419623
72
droplet n=24 rho=0.40 rep=1
O     -0.45854334    -2.30723851     1.70239538
H     -0.99782789    -1.89301504     2.35095818
H     -0.07102531    -1.69148162     1.04672750
O      2.61261041    -1.91659303    -3.18394773
H      3.40457918    -1.45628976    -2.77579499
H      2.82651642    -2.89057158    -3.04593840
O      0.71990765     0.42019535    -0.89831866
H      0.94380594    -0.09210159    -1.72238623
H      1.36899827     1.13893977    -0.78886398
O      2.75955801    -2.76363342     4.18631266
H      2.88427056    -3.08085920     3.27469718
H      3.53804722    -2.96935584     4.75544494
O     -2.48460011    -1.48138818    -1.63832805
H     -3.33117890    -1.43632038    -2.17658558
H     -2.70724979    -1.58720283    -0.76004527
O     -1.69984678     6.54722025     1.72830634
H     -1.48738087     7.19766803     2.40315853
H     -1.52374301     5.63973634     2.17197442
O      1.63627257     4.31349821    -2.38721341
H      1.72542527     4.10846342    -3.29888357
H      0.71503696     4.60572741    -2.33775997
O      1.65176957     0.96054651     3.39079345
H      1.82625883     0.05986235     3.64365593
H      0.84860629     0.99707611     2.89148985
O      5.25083883    -0.10414576    -1.03834909
H      5.83935078     0.05886667    -0.36646466
H      4.46081080     0.40973496    -1.03159779
O     -1.52568903     5.96457576    -1.93514345
H     -1.97157652     6.79770569    -2.05434380
H     -1.39048822     5.86605868    -0.97973176
O     -4.63170400    -1.96362700     1.76610082
H     -4.62523402    -2.93905834     1.86837828
H     -4.35831076    -1.71891063     2.67106545
O     -1.26433603    -4.58517653    -2.63685388
H     -1.75900231    -4.64342060    -3.46104674
H     -1.41581876    -3.63755310    -2.47248623
O     -1.14839524    -3.05196614     7.56875221
H     -0.89933402    -3.18417306     8.52725127
H     -0.27159753    -3.08290664     7.09953538
O      0.00020032     1.71777556     6.41188933
H      0.85680564     1.59827180     5.97558343
H     -0.30914832     2.62293458     6.43146961
O     -4.17227144    -2.12407730    -5.49183770
H     -4.74326749    -1.38865563    -5.32965377
H     -4.06840961    -2.11848917    -6.43003875
O     -0.24543237    -1.14845872    -5.59605717
H     -1.03391021    -1.17325986    -5.06650662
H      0.43935846    -1.62070055    -4.99799373
O      2.80622762    -5.13152014    -2.19011319
H      3.06767281    -5.50816450    -1.34876982
H      1.81715087    -5.24209934    -2.12078520
O      0.65264004    -6.61262434     0.60424331
H      0.33352444    -7.48850914     0.45058640
H     -0.00500814    -5.88360023     0.72566854
O     -2.09055203     2.72122829     2.42827054
H     -2.16551002     2.43970029     1.47447399
H     -2.87652687     2.38227448     2.82857495
O      4.12762538     3.21892505     0.87404860
H      3.53409455     3.94745748     0.54548365
H      4.01311924     3.13519075     1.81004089
O     -2.21203032    -0.69118017     4.77848479
H     -2.07683052    -1.30658473     5.53924186
H     -1.65862021     0.05139443     5.05406945
O      0.95827483     2.09333387    -6.18349753
H      1.36507237     2.08085313    -7.12639461
H      0.76729245     1.18359250    -5.86603201
O     -2.58020851     2.07647854    -1.03810787
H     -2.19028565     1.16064843    -1.24217443
H     -1.96543330     2.72501983    -1.31100327
O     -4.79286049     1.34011245    -3.88276906
H     -4.01836683     1.61165280    -4.39999279
H     -4.64536741     1.84984289    -3.09536719
72
droplet n=24 rho=0.20 rep=1
O     -0.52545972    -2.79289122     2.16133651
H     -1.06474426    -2.37866775     2.80989932
H     -0.13794168    -2.17713433     1.50566864
O      3.44424999    -2.43445163    -3.94713476
H      4.23621876    -1.97414835    -3.53898202
H      3.65815600    -3.40843018    -3.80912543
O      1.04808066     0.57210893    -1.17665657
H      1.27197895     0.05981200    -2.00072414
H      1.69717129     1.29085336    -1.06720189
O      3.62049674    -3.50245906     5.26181891
H      3.74520928    -3.81968483     4.35020343
H      4.39898595    -3.70818147     5.83095119
O     -3.15762051    -1.84688600    -2.01763576
H     -4.00419930    -1.80181819    -2.55589328
H     -3.38027019    -1.95270065    -1.13935298
O     -2.04258913     8.25152019     2.29150685
H     -1.83012322     8.90196798     2.96635905
H     -1.86648536     7.34403628     2.73517494
O      2.05490010     5.46703103    -3.06533485
H      2.14405279     5.26199624    -3.97700501
H      1.13366449     5.75926023    -3.01588141
O      2.09204851     1.16015139     4.26784863
H      2.26653777     0.25946724     4.52071111
H      1.28888523     1.19668100     3.76854503
O      6.66360074    -0.04775989    -1.23237230
H      7.25211269     0.11525254    -0.56048787
H      5.87357271     0.46612083    -1.22562100
O     -1.88374793     7.60335095    -2.34860999
H     -2.32963542     8.43648088    -2.46781034
H     -1.74854713     7.50483387    -1.39319830
O     -5.74591613    -2.51251511     2.32948374
H     -5.73944615    -3.48794645     2.43176120
H     -5.47252288    -2.26779874     3.23444837
O     -1.58352836    -5.67509501    -3.36232687
H     -2.07819464    -5.73333908    -4.18651972
H     -1.73501108    -4.72747157    -3.19795922
O     -1.28392473    -3.83456225     9.59549015
H     -1.03486351    -3.96676917    10.55398920
H     -0.40712702    -3.86550275     9.12627331
O      0.11308470     2.25714032     8.05943742
H      0.96969001     2.13763656     7.62313151
H     -0.19626395     3.16229933     8.07901769
O     -5.23178749    -2.58715907    -6.96944798
H     -5.80278354    -1.85173740    -6.80726405
H     -5.12792566    -2.58157094    -7.90764903
O     -0.25279110    -1.46522201    -6.93582502
H     -1.04126894    -1.49002315    -6.40627447
H      0.43199974    -1.93746384    -6.33776158
O      3.53800079    -6.48271417    -2.66340049
H      3.79944598    -6.85935854    -1.82205712
H      2.54892404    -6.59329338    -2.59407250
O      0.80306556    -8.31929937     0.77557464
H      0.48394997    -9.19518418     0.62191772
H      0.14541738    -7.59027527     0.89699987
O     -2.64310423     3.39958333     3.02854275
H     -2.71806223     3.11805533     2.07474620
H     -3.42907907     3.06062952     3.42884716
O      5.20455533     4.13626625     1.17092828
H      4.61102449     4.86479868     0.84236334
H      5.09004919     4.05253195     2.10692057
O     -2.66190437    -0.83500511     6.12737091
H     -2.52670456    -1.45040967     6.88812798
H     -2.10849425    -0.09243050     6.40295558
O      1.29146673     2.58234304    -7.82783798
H      1.69826427     2.56986231    -8.77073506
H      1.10048435     1.67260168    -7.51037246
O     -3.09839382     2.61785031    -1.33218978
H     -2.70847097     1.70202020    -1.53625633
H     -2.48361862     3.26639160    -1.60508518
O     -5.89332677     1.78093474    -4.85150581
H     -5.11883311     2.05247509    -5.36872954
H     -5.74583369     2.29066518    -4.06410394
72
droplet-evaporation n=24 rep=1
O     -0.39097450    -1.81685042     1.23897932
H     -0.93025904    -1.40262695     1.88754212
H     -0.00345646    -1.20109354     0.58331144
O      1.77286191    -1.39368504    -2.41331922
H      2.56483068    -0.93338177    -2.00516649
H      1.98676792    -2.36766359    -2.27530989
O      0.38853478     0.26680053    -0.61726681
H      0.61243307    -0.24549641    -1.44133438
H      1.03762540     0.98554495    -0.50781213
O      1.89022468    -2.01760385     3.10031966
H      2.01493722    -2.33482963     2.18870418
H      2.66871389    -2.22332627     3.66945194
O     -1.80501740    -1.11232657    -1.25532189
H     -2.65159619    -1.06725877    -1.79357942
H     -2.02766709    -1.21814122    -0.37703912
O     -1.35376251     4.82630248     1.15961432
H     -1.14129660     5.47675027     1.83446651
H     -1.17765874     3.91881857     1.60328240
O      1.21356321     3.14871784    -1.70247993
H      1.30271590     2.94368305    -2.61415008
H      0.29232760     3.44094703    -1.65302649
O      1.20719768     0.75899537     2.50518652
H      1.38168694    -0.14168879     2.75804900
H      0.40403440     0.79552497     2.00588292
O      3.82430174    -0.16108142    -0.84243404
H      4.41281369     0.00193101    -0.17054961
H      3.03427371     0.35279930    -0.83568274
O     -1.16413886     4.30982164    -1.51764539
H     -1.61002635     5.14295158    -1.63684575
H     -1.02893806     4.21130457    -0.56223370
O     -3.50662772    -1.40938694     1.19722462
H     -3.50015774    -2.38481828     1.29950208
H     -3.23323448    -1.16467058     2.10218925
O     -0.94203141    -3.48463078    -1.90430716
H     -1.43669769    -3.54287485    -2.72850001
H     -1.09351413    -2.53700734    -1.73993950
O     -1.61015217    -5.85433730    14.56587922
H     -1.36109095    -5.98654423    15.52437827
H     -0.73335446    -5.88527780    14.09666238
O     -0.11378473     1.17315171     4.74827679
H      0.74282058     1.05364796     4.31197088
H     -0.42313337     2.07831073     4.76785706
O     -3.10242455    -1.65648024    -3.99981994
H     -3.67342060    -0.92105857    -3.83763601
H     -2.99856272    -1.65089211    -4.93802099
O     -0.23800190    -0.82860682    -4.24322588
H     -1.02647974    -0.85340796    -3.71367532
H      0.44678893    -1.30084865    -3.64516244
O      2.06731927    -3.76715124    -1.71221109
H      2.32876446    -4.14379561    -0.87086772
H      1.07824253    -3.87773045    -1.64288310
O      0.50074779    -4.88930832     0.43124142
H      0.18163219    -5.76519312     0.27758450
H     -0.15690040    -4.16028422     0.55266665
O     -1.53261215     2.03625893     1.82214536
H     -1.60757014     1.75473094     0.86834881
H     -2.31858699     1.69730513     2.22244977
O      3.04019480     2.29263930     0.57427419
H      2.44666397     3.02117173     0.24570924
H      2.92568866     2.20890499     1.51026647
O     -1.75776977    -0.54595287     3.41644631
H     -1.62256997    -1.16135743     4.17720338
H     -1.20435965     0.19662174     3.69203098
O      0.62183414     1.59955660    -4.52312390
H      1.02863168     1.58707586    -5.46602098
H      0.43085176     0.68981523    -4.20565838
O     -2.05697061     1.52982811    -0.74115851
H     -1.66704776     0.61399800    -0.94522507
H     -1.44219540     2.17836940    -1.01405391
O     -3.68166408     0.89499191    -2.90458662
H     -2.90717042     1.16653226    -3.42181035
H     -3.53417100     1.40472235    -2.11718475
72
droplet n=24 rho=0.80 rep=2
O     -1.09345138    -1.23913130     1.16522540
H     -1.48690236    -1.44551842     2.02804425
H     -0.73440766    -0.34287984     1.29689815
O      2.24449224    -1.34778287    -2.22980822
H      3.04814689    -0.88673455    -1.80977009
H      2.32886174    -2.16907769    -1.80152856
O      0.64079542     0.33881742    -0.54944137
H      0.96734401    -0.26066998    -1.20957802
H      0.83876626     1.29295673    -0.70137210
O      1.67777964    -2.17442876     2.23069668
H      1.26313544    -3.01899402     2.18756916
H      2.33498442    -1.96440155     1.59275515
O     -1.97461706    -1.44052566    -1.60258430
H     -2.91399914    -1.40940028    -1.38830103
H     -1.37036182    -1.31421710    -0.78645544
O     -1.68108471     4.56756024     1.97766167
H     -0.91840249     5.07718832     2.07638553
H     -1.49850996     3.58429413     2.11509778
O      1.39182137     3.19005763    -1.61032808
H      1.45880559     2.50095238    -2.29966726
H      0.59889990     3.79007704    -1.74873804
O      1.51031189     0.81722814     2.24809863
H      1.49797071    -0.14106775     2.23672530
H      1.12006705     1.16496726     1.44583028
O      4.20468629     0.48361629    -0.75538440
H      4.86309244     1.08140537    -1.20086015
H      3.66354465     1.07435802    -0.17879088
O     -1.73679772     4.68922887    -0.97446482
H     -2.63237025     5.02246770    -1.04556508
H     -1.69878447     4.69052799     0.03126411
O     -4.26370136    -1.69979401     1.91605818
H     -3.65575140    -2.12903926     1.32026862
H     -3.85212752    -1.54981137     2.78816606
O     -0.57337561    -3.76868421    -2.93396975
H     -0.96703825    -3.95675113    -3.77935937
H     -1.11468674    -3.08997689    -2.53349155
O     -0.17748582    -2.10769994     5.70141658
H      0.20674800    -1.37403860     5.25850570
H      0.35625297    -2.55082109     6.34734543
O     -0.12924556     1.14997613     4.57333555
H      0.52183719     1.14418246     3.81799487
H     -0.25546264     2.01947840     4.86818578
O     -2.86342821    -2.44008905    -4.52643794
H     -3.06478941    -1.67341198    -3.99328017
H     -3.22511559    -2.35632384    -5.38816178
O     -0.13229855    -0.66820597    -4.70892842
H     -0.63907358    -1.43406880    -4.47563865
H      0.55677061    -0.64388458    -3.99793181
O      2.37393578    -4.21239088    -1.82076966
H      2.25361997    -4.62708482    -0.98005396
H      1.54795391    -4.46877849    -2.29350252
O      0.12643881    -4.84774385     1.67515453
H      0.03368968    -5.65800469     1.20340267
H     -0.27010090    -4.16795801     1.22486633
O     -1.63381230     1.67239563     1.80869712
H     -1.75236947     1.52326385     0.79456818
H     -2.50954483     1.40474196     2.15319247
O      3.06642982     2.75754509     0.82518423
H      2.86849637     3.27617981     0.03322557
H      3.97943725     2.90131160     1.07601555
O     -2.32311666    -0.68481793     4.14889179
H     -2.10822144    -1.20662769     4.92719730
H     -1.76554122     0.06129651     4.33496861
O      0.60019644     1.97737764    -4.16123113
H      1.18477493     2.14609579    -4.87798208
H     -0.02558436     1.30808268    -4.37806265
O     -1.98206551     1.65872707    -1.19957699
H     -1.20234727     1.07631243    -1.38036019
H     -1.73811318     2.58720987    -1.11267543
O     -3.60764591     0.69977352    -3.76628789
H     -3.69399912     1.60398819    -4.15184036
H     -3.24959371     0.71748590    -2.84037528
72
droplet n=24 rho=0.60 rep=2
O     -1.18063152    -1.33312153     1.32671131
H     -1.57408251    -1.53950866     2.18953016
H     -0.82158780    -0.43687007     1.45838407
O      2.52419604    -1.48793663    -2.41491045
H      3.32785070    -1.02688831    -1.99487232
H      2.60856554    -2.30923144    -1.98663080
O      0.74690464     0.39239023    -0.62112915
H      1.07345323    -0.20709717    -1.28126580
H      0.94487548     1.34652954    -0.77305988
O      1.87879446    -2.40697994     2.44320337
H      1.46415025    -3.25154521     2.40007585
H      2.53599923    -2.19695273     1.80526184
O     -2.16056823    -1.57264640    -1.71845240
H     -3.09995031    -1.54152102    -1.50416913
H     -1.55631299    -1.44633784    -0.90232354
O     -1.79454043     5.01893691     2.19547302
H     -1.03185822     5.52856499     2.29419689
H     -1.61196569     4.03567081     2.33290914
O      1.53156600     3.51569986    -1.78931214
H      1.59855021     2.82659462    -2.47865133
H      0.73864452     4.11571928    -1.92772210
O      1.67282931     0.88656905     2.45790922
H      1.66048813    -0.07172684     2.44653589
H      1.28258447     1.23430816     1.65564087
O      4.65581173     0.57973653    -0.81615731
H      5.31421788     1.17752561    -1.26163305
H      4.11467008     1.17047827    -0.23956379
O     -1.91634046     5.17996283    -1.03033075
H     -2.81191299     5.51320166    -1.10143101
H     -1.87832722     5.18126194    -0.02460182
O     -4.63458641    -1.87265821     2.12901682
H     -4.02663644    -2.30190347     1.53322727
H     -4.22301256    -1.72267557     3.00112470
O     -0.63842580    -4.12393822    -3.23332507
H     -1.03208845    -4.31200514    -4.07871470
H     -1.17973693    -3.44523090    -2.83284687
O     -0.14053104    -2.30250134     6.29288380
H      0.24370278    -1.56883999     5.84997292
H      0.39320775    -2.74562248     6.93881265
O     -0.10062351     1.30226348     5.02901094
H      0.55045924     1.29646981     4.27367025
H     -0.22684059     2.17176574     5.32386117
O     -3.14647768    -2.64955959    -4.98216002
H     -3.34783888    -1.88288252    -4.44900225
H     -3.50816506    -2.56579437    -5.84388386
O     -0.11547616    -0.75275695    -5.14031580
H     -0.62225120    -1.51861978    -4.90702603
H      0.57359299    -0.72843555    -4.42931919
O      2.60513024    -4.65127343    -1.98081929
H      2.48481442    -5.06596737    -1.14010359
H      1.77914837    -4.90766104    -2.45355215
O      0.14677124    -5.33243388     1.82366615
H      0.05402210    -6.14269472     1.35191429
H     -0.24976848    -4.65264804     1.37337795
O     -1.80757730     1.83430319     1.97911639
H     -1.92613447     1.68517141     0.96498745
H     -2.68330984     1.56664953     2.32361174
O      3.42305337     3.06486871     0.90093145
H      3.22511992     3.58350343     0.10897279
H      4.33606080     3.20863522     1.15176277
O     -2.50698458    -0.73863907     4.60965101
H     -2.29208935    -1.26044884     5.38795652
H     -1.94940913     0.00747536     4.79572783
O      0.68324114     2.16716835    -4.60049468
H      1.26781963     2.33588650    -5.31724564
H      0.05746035     1.49787339    -4.81732620
O     -2.12318210     1.84485082    -1.31260267
H     -1.34346385     1.26243617    -1.49338587
H     -1.87922976     2.77333362    -1.22570111
O     -3.93759158     0.80870447    -4.11635635
H     -4.02394478     1.71291914    -4.50190882
H     -3.57953938     0.82641685    -3.19044374
72
droplet n=24 rho=0.40 rep=2
O     -1.31860450    -1.48187229     1.58228204
H     -1.71205549    -1.68825942     2.44510089
H     -0.95956079    -0.58562083     1.71395479
O      2.96686070    -1.70974667    -2.70785683
H      3.77051535    -1.24869835    -2.28781870
H      3.05123020    -2.53104148    -2.27957717
O      0.91483514     0.47717560    -0.73458362
H      1.24138373    -0.12231180    -1.39472027
H      1.11280598     1.43131491    -0.88651434
O      2.19692438    -2.77501994     2.77952057
H      1.78228018    -3.61958520     2.73639305
H      2.85412915    -2.56499272     2.14157904
O     -2.45485815    -1.78174324    -1.90182749
H     -3.39424023    -1.75061786    -1.68754422
H     -1.85060291    -1.65543468    -1.08569863
O     -1.97409766     5.73329435     2.54018548
H     -1.21141544     6.24292244     2.63890935
H     -1.79152291     4.75002825     2.67762160
O      1.75272854     4.03106756    -2.07257579
H      1.81971276     3.34196231    -2.76191497
H      0.95980707     4.63108697    -2.21098574
O      1.93003251     0.99630931     2.78995952
H      1.91769133     0.03801342     2.77858619
H      1.53978767     1.34404843     1.98769117
O      5.36977156     0.73185829    -0.91233768
H      6.02817771     1.32964737    -1.35781343
H      4.82862992     1.32260003    -0.33574416
O     -2.20048828     5.95660787    -1.11874525
H     -3.09606081     6.28984670    -1.18984551
H     -2.16247504     5.95790699    -0.11301632
O     -5.22155624    -2.14623643     2.46604929
H     -4.61360627    -2.57548169     1.87025973
H     -4.80998240    -1.99625380     3.33815717
O     -0.74137549    -4.68617009    -3.70709059
H     -1.13503814    -4.87423700    -4.55248022
H     -1.28268663    -4.00746277    -3.30661239
O     -0.08204569    -2.61079779     7.22895125
H      0.30218813    -1.87713645     6.78604037
H      0.45169310    -3.05391894     7.87488010
O     -0.05532570     1.54327638     5.75017161
H      0.59575705     1.53748271     4.99483092
H     -0.18154278     2.41277864     6.04502184
O     -3.59443725    -2.98107172    -5.70339459
H     -3.79579844    -2.21439464    -5.17023682
H     -3.95612463    -2.89730650    -6.56511843
O     -0.08885274    -0.88656895    -5.82303780
H     -0.59562777    -1.65243178    -5.58974804
H      0.60021642    -0.86224756    -5.11204119
O      2.97102306    -5.34585745    -2.23411692
H      2.85070724    -5.76055139    -1.39340123
H      2.14504119    -5.60224506    -2.70684978
O      0.17894972    -6.09951369     2.05870351
H      0.08620059    -6.90977453     1.58695165
H     -0.21758999    -5.41972785     1.60841532
O     -2.08258116     2.09054124     2.24882522
H     -2.20113832     1.94140946     1.23469628
H     -2.95831369     1.82288758     2.59332057
O      3.98745269     3.55124501     1.02081045
H      3.78951924     4.06987973     0.22885180
H      4.90046012     3.69501152     1.27164177
O     -2.79797749    -0.82381746     5.33885745
H     -2.58308227    -1.34562722     6.11716297
H     -2.24040205    -0.07770302     5.52493428
O      0.81466930     2.46753479    -5.29568168
H      1.39924779     2.63625294    -6.01243263
H      0.18888850     1.79823983    -5.51251320
O     -2.34651593     2.13941385    -1.49147931
H     -1.56679768     1.55699920    -1.67226250
H     -2.10256359     3.06789665    -1.40457775
O     -4.45976997     0.98110070    -4.67038146
H     -4.54612318     1.88531537    -5.05593394
H     -4.10171777     0.99881307    -3.74446886
72
droplet n=24 rho=0.20 rep=2
O     -1.60227967    -1.78770678     2.10774048
H     -1.99573066    -1.99409390     2.97055933
H     -1.24323595    -0.89145531     2.23941324
O      3.87698793    -2.16579247    -3.31016033
H      4.68064258    -1.70474415    -2.89012220
H      3.96135743    -2.98708728    -2.88188068
O      1.26010355     0.65149597    -0.96784823
H      1.58665214     0.05200857    -1.62798488
H      1.45807439     1.60563528    -1.11977896
O      2.85100576    -3.53171740     3.47099535
H      2.43636156    -4.37628267     3.42786783
H      3.50821053    -3.32169019     2.83305382
O     -3.05992400    -2.21165046    -2.27885029
H     -3.99930608    -2.18052508    -2.06456702
H     -2.45566876    -2.08534189    -1.46272143
O     -2.34327084     7.20202731     3.24892107
H     -1.58058863     7.71165539     3.34764494
H     -2.16069609     6.21876120     3.38635719
O      2.20744308     5.09067367    -2.65497140
H      2.27442730     4.40156842    -3.34431059
H      1.41452161     5.69069308    -2.79338136
O      2.45884735     1.22193745     3.47266146
H      2.44650617     0.26364156     3.46128813
H      2.06860251     1.56967656     2.67039311
O      6.83768702     1.04462362    -1.11008643
H      7.49609317     1.64241270    -1.55556217
H      6.29654538     1.63536536    -0.53349291
O     -2.78470178     7.55340536    -1.30052720
H     -3.68027431     7.88664419    -1.37162746
H     -2.74668854     7.55470448    -0.29479827
O     -6.42837776    -2.70871864     3.15899466
H     -5.82042780    -3.13796390     2.56320510
H     -6.01680392    -2.55873601     4.03110254
O     -0.95304209    -5.84212985    -4.68116182
H     -1.34670473    -6.03019676    -5.52655145
H     -1.49435322    -5.16342253    -4.28068362
O      0.03820133    -3.24466136     9.15352433
H      0.42243515    -2.51100002     8.71061345
H      0.57194012    -3.68778251     9.79945318
O      0.03780749     2.03880363     7.23289213
H      0.68889024     2.03300997     6.47755144
H     -0.08840959     2.90830590     7.52774236
O     -4.51545092    -3.66266716    -7.18626705
H     -4.71681211    -2.89599009    -6.65310927
H     -4.87713830    -3.57890194    -8.04799088
O     -0.03411445    -1.16168907    -7.22672767
H     -0.54088949    -1.92755190    -6.99343790
H      0.65495470    -1.13736767    -6.51573105
O      3.72330588    -6.77393584    -2.75490184
H      3.60299007    -7.18862978    -1.91418615
H      2.89732402    -7.03032345    -3.22763471
O      0.24510933    -7.67664487     2.54194495
H      0.15236019    -8.48690570     2.07019309
H     -0.15143039    -6.99685903     2.09165676
O     -2.64799449     2.61737171     2.80335187
H     -2.76655165     2.46823993     1.78922294
H     -3.52372702     2.34971805     3.14784722
O      5.14786880     4.55124424     1.26728405
H      4.94993535     5.06987896     0.47532539
H      6.06087623     4.69501075     1.51811537
O     -3.39626466    -0.99894589     6.83812025
H     -3.18136943    -1.52075566     7.61642576
H     -2.83868921    -0.25283146     7.02419707
O      1.08488818     3.08509410    -6.72499979
H      1.66946666     3.25381225    -7.44175075
H      0.45910738     2.41579914    -6.94183131
O     -2.80569468     2.74504124    -1.85925318
H     -2.02597643     2.16262659    -2.04003637
H     -2.56174234     3.67352404    -1.77235162
O     -5.53337901     1.33555073    -5.80946799
H     -5.61973221     2.23976541    -6.19502047
H     -5.17532681     1.35326311    -4.88355539
72
droplet-evaporation n=24 rep=2
O     -1.03216336    -1.17305576     1.05170010
H     -1.42561434    -1.37944288     1.91451895
H     -0.67311964    -0.27680430     1.18337286
O      2.04785925    -1.24925418    -2.09968055
H      2.85151390    -0.78820586    -1.67964242
H      2.13222875    -2.07054899    -1.67140089
O      0.56620018     0.30115551    -0.49904455
H      0.89274876    -0.29833189    -1.15918120
H      0.76417101     1.25529482    -0.65097528
O      1.53646536    -2.01094427     2.08130355
H      1.12182116    -2.85550954     2.03817603
H      2.19367013    -1.80091706     1.44336202
O     -1.84389258    -1.34764420    -1.52112853
H     -2.78327466    -1.31651883    -1.30684526
H     -1.23963734    -1.22133564    -0.70499966
O     -1.60132484     4.25024048     1.82453934
H     -0.83864263     4.75986857     1.92326321
H     -1.41875009     3.26697438     1.96197546
O      1.29358029     2.96112973    -1.48450151
H      1.36056451     2.27202448    -2.17384069
H      0.50065882     3.56114914    -1.62291146
O      1.39606145     0.76848118     2.10060087
H      1.38372026    -0.18981471     2.08922755
H      1.00581661     1.11622030     1.29833252
O      3.88754316     0.41604334    -0.71266078
H      4.54594931     1.01383242    -1.15813653
H      3.34640151     1.00678507    -0.13606726
O     -1.61057839     4.34424077    -0.93519083
H     -2.50615092     4.67747960    -1.00629109
H     -1.57256514     4.34553989     0.07053810
O     -4.00296757    -1.57826973     1.76634734
H     -3.39501761    -2.00751498     1.17055778
H     -3.59139373    -1.42828709     2.63845521
O     -0.52764504    -3.51893911    -2.72352166
H     -0.92130769    -3.70700602    -3.56891129
H     -1.06895617    -2.84023179    -2.32304346
O      0.34096859    -4.93830501    14.48864225
H      0.72520241    -4.20464366    14.04573137
H      0.87470738    -5.38142615    15.13457110
O     -0.14936698     1.04291746     4.25299378
H      0.50171576     1.03712380     3.49765310
H     -0.27558407     1.91241973     4.54784401
O     -2.66444321    -2.29283036    -4.20606335
H     -2.86580440    -1.52615328    -3.67290557
H     -3.02613059    -2.20906514    -5.06778719
O     -0.14412475    -0.60876627    -4.40566123
H     -0.65089979    -1.37462910    -4.17237146
H      0.54494440    -0.58444488    -3.69466461
O      2.21140507    -3.90385454    -1.70825408
H      2.09108926    -4.31854848    -0.86753838
H      1.38542321    -4.16024215    -2.18098694
O      0.11214503    -4.50700466     1.57075021
H      0.01939590    -5.31726550     1.09899835
H     -0.28439468    -3.82721882     1.12046202
O     -1.51165475     1.55857390     1.68889163
H     -1.63021192     1.40944212     0.67476270
H     -2.38738728     1.29092024     2.03338698
O      2.81572192     2.54149525     0.77193361
H      2.61778847     3.06012997    -0.02002505
H      3.72872935     2.68526177     1.02276493
O     -2.19385672    -0.64698143     3.82497606
H     -1.97896150    -1.16879119     4.60328157
H     -1.63628127     0.09913301     4.01105289
O      0.54181565     1.84395395    -3.85242695
H      1.12639414     2.01267210    -4.56917790
H     -0.08396515     1.17465899    -4.06925847
O     -1.88285994     1.52788128    -1.12011945
H     -1.10314170     0.94546663    -1.30090264
H     -1.63890761     2.45636408    -1.03321789
O     -3.37569268     0.62319459    -3.52018824
H     -3.46204588     1.52740926    -3.90574072
H     -3.01764048     0.64090697    -2.59427564
72
droplet n=24 rho=0.80 rep=3
O     -1.98386437    -2.05032511     1.31995353
H     -2.17330835    -1.88431344     2.33870647
H     -1.13995760    -1.59514257     1.31866809
O      2.80573789    -1.02956547    -1.85031343
H      3.36875063    -0.39054815    -1.36218774
H      3.22279210    -1.88737412    -1.72174608
O      0.50671567     0.88870377    -0.73721420
H      0.95280502     0.10015533    -1.01954070
H      0.97854172     1.69245579    -1.07323906
O      1.74475419    -2.49988561     0.63753467
H      1.49050942    -3.32464891     0.30793452
H      2.25166245    -2.15856605    -0.17293912
O     -2.03295830    -1.97518372    -1.93394467
H     -2.92123620    -1.71239891    -2.23895644
H     -2.20564739    -1.95681635    -0.96828873
O     -1.67744701     4.17849717     2.66161049
H     -1.60815655     4.01782224     3.65859097
H     -1.99605544     3.37206629     2.26401771
O      0.91654286     3.56861759    -0.95105488
H      0.96759563     3.86327899    -1.87752705
H     -0.02988144     3.75406681    -0.70022224
O      1.82309019     0.34043219     2.52129217
H      1.96745235    -0.58587725     2.37157144
H      1.40293873     0.49023737     1.65048669
O      4.24351458     1.06413950    -0.42241304
H      4.36006321     1.94742147    -0.75643021
H      3.81257962     1.37829833     0.37840352
O     -1.78474760     4.53818876    -0.64456130
H     -1.45924607     5.38947570    -1.03217133
H     -2.13769773     4.88587354     0.20286699
O     -4.80912622    -1.51876984     2.22730174
H     -4.67115289    -2.43080851     1.93034316
H     -4.29418477    -1.33540552     3.01136876
O     -0.10131942    -3.76696783    -3.23556593
H     -0.53366485    -4.20911878    -3.94129775
H     -0.75959082    -3.31404838    -2.74657903
O      0.82725427    -1.48056120     4.90550505
H      1.59077681    -2.08949494     5.00416297
H      0.71819614    -0.77113834     5.56945530
O     -0.63091823     1.23494869     4.09270817
H      0.16902830     0.72747986     3.85720905
H     -1.06702946     1.49087810     3.23983533
O     -2.47357030    -3.31399664    -4.83046954
H     -3.06336920    -2.94830757    -4.17396449
H     -1.87157256    -2.56605490    -5.03129630
O     -0.05252961    -0.71241339    -4.42631316
H     -0.67936611    -0.80330603    -3.65534375
H      0.67542237    -1.21576800    -4.24718326
O      2.50330041    -4.02103863    -1.85655199
H      2.67265575    -4.94325019    -1.76293280
H      1.79774395    -3.95870675    -2.51552764
O     -0.57006769    -4.36190434     2.53114677
H      0.10462485    -3.80094846     2.93342174
H     -1.10878466    -3.65867761     2.16496458
O     -2.05470182     1.31666094     1.48565275
H     -1.58877677     1.54148597     0.70288658
H     -2.49824198     0.46130845     1.37500067
O      3.28067856     3.73304702     0.88640732
H      3.15784545     4.50429807     1.39951663
H      2.73640339     3.10915185     1.40764722
O     -2.35726576    -1.24255096     4.03006040
H     -1.87785740    -1.98759272     4.41744532
H     -1.82677340    -0.46571805     4.38101111
O      0.63973206     2.72571699    -3.90129385
H      0.12072291     2.90540452    -4.64178274
H      0.70153879     1.77319194    -3.94082322
O     -1.99874383     1.68101631    -1.56317190
H     -1.08385148     1.31714508    -1.30844147
H     -1.96848897     2.61743288    -1.58473531
O     -3.13181423     0.10309667    -3.73040968
H     -4.00143101     0.36779288    -3.37551134
H     -2.49855864     0.66745948    -3.26978489
72
droplet n=24 rho=0.60 rep=3
O     -2.13611418    -2.22714097     1.49534099
H     -2.32555815    -2.06112930     2.51409394
H     -1.29220741    -1.77195844     1.49405556
O      3.14644843    -1.13182901    -2.00743426
H      3.70946117    -0.49281169    -1.51930858
H      3.56350263    -1.98963766    -1.87886691
O      0.61396202     0.98734942    -0.82374265
H      1.06005137     0.19880098    -1.10606915
H      1.08578807     1.79110144    -1.15976752
O      1.95428221    -2.75900414     0.67186180
H      1.70003744    -3.58376744     0.34226164
H      2.46119047    -2.41768458    -0.13861200
O     -2.24769738    -2.15584473    -2.09800790
H     -3.13597528    -1.89305991    -2.40301967
H     -2.42038646    -2.13747735    -1.13235197
O     -1.82917779     4.57528158     2.95800003
H     -1.75988734     4.41460665     3.95498052
H     -2.14778622     3.76885069     2.56040725
O      1.00420402     3.95257270    -1.06102665
H      1.05525679     4.24723409    -1.98749882
H      0.05777972     4.13802191    -0.81019401
O      2.02277388     0.35733867     2.74921572
H      2.16713604    -0.56897078     2.59949500
H      1.60262242     0.50714384     1.87841024
O      4.68550079     1.22010249    -0.44085508
H      4.80204943     2.10338446    -0.77487225
H      4.25456584     1.53426132     0.35996148
O     -1.93983422     5.04383982    -0.68559507
H     -1.61433269     5.89512676    -1.07320511
H     -2.29278435     5.39152461     0.16183321
O     -5.24576914    -1.68737338     2.47621471
H     -5.10779581    -2.59941204     2.17925614
H     -4.73082769    -1.50400905     3.26028174
O     -0.12264837    -4.13702901    -3.56006165
H     -0.55499380    -4.57917995    -4.26579348
H     -0.78091977    -3.68410955    -3.07107476
O      0.95792229    -1.61750299     5.43320120
H      1.72144483    -2.22643673     5.53185912
H      0.84886416    -0.90808013     6.09715145
O     -0.65675409     1.35949272     4.47650677
H      0.14319245     0.85202388     4.24100765
H     -1.09286531     1.61542212     3.62363393
O     -2.69665163    -3.60147146    -5.29292212
H     -3.28645053    -3.23578239    -4.63641707
H     -2.09465389    -2.85352972    -5.49374889
O     -0.02896862    -0.79535357    -4.83150389
H     -0.65580512    -0.88624621    -4.06053448
H      0.69898335    -1.29870819    -4.65237400
O      2.76270594    -4.44587815    -2.05395546
H      2.93206128    -5.36808971    -1.96033627
H      2.05714948    -4.38354628    -2.71293110
O     -0.59742352    -4.74979249     2.79550901
H      0.07726902    -4.18883661     3.19778398
H     -1.13614049    -4.04656576     2.42932682
O     -2.23528550     1.43671458     1.61361120
H     -1.76936044     1.66153962     0.83084503
H     -2.67882565     0.58136210     1.50295912
O      3.61392971     4.12238762     1.01872799
H      3.49109659     4.89363867     1.53183729
H      3.06965454     3.49849245     1.53996789
O     -2.53517154    -1.35784347     4.46883541
H     -2.05576319    -2.10288522     4.85622033
H     -2.00467918    -0.58101056     4.81978611
O      0.71423378     2.98280730    -4.31168644
H      0.19522463     3.16249484    -5.05217533
H      0.77604051     2.03028226    -4.35121581
O     -2.14273942     1.87809961    -1.70426044
H     -1.22784707     1.51422838    -1.44953001
H     -2.11248455     2.81451618    -1.72582385
O     -3.42948138     0.14997971    -4.07007769
H     -4.29909816     0.41467592    -3.71517936
H     -2.79622578     0.71434253    -3.60945290
72
droplet n=24 rho=0.40 rep=3
O     -2.37706767    -2.50697318     1.77291259
H     -2.56651164    -2.34096151     2.79166553
H     -1.53316090    -2.05179064     1.77162715
O      3.68566350    -1.29367326    -2.25609673
H      4.24867624    -0.65465594    -1.76797104
H      4.10271770    -2.15148192    -2.12752937
O      0.78369217     1.14346793    -0.96068426
H      1.22978152     0.35491949    -1.24301076
H      1.25551822     1.94721995    -1.29670912
O      2.28588531    -3.16909014     0.72618856
H      2.03164053    -3.99385344     0.39658841
H      2.79279357    -2.82777058    -0.08428523
O     -2.58754759    -2.44176233    -2.35765755
H     -3.47582549    -2.17897751    -2.66266932
H     -2.76023667    -2.42339495    -1.39200161
O     -2.06930986     5.20324026     3.42707185
H     -2.00001941     5.04256532     4.42405234
H     -2.38791830     4.39680937     3.02947907
O      1.14293826     4.56022747    -1.23507010
H      1.19399103     4.85488887    -2.16154227
H      0.19651397     4.74567669    -0.98423745
O      2.33879715     0.38409518     3.10993194
H      2.48315931    -0.54221426     2.96021121
H      1.91864569     0.53390036     2.23912646
O      5.38499672     1.46693254    -0.47004181
H      5.50154536     2.35021451    -0.80405898
H      4.95406177     1.78109137     0.33077475
O     -2.18527730     5.84409297    -0.75053592
H     -1.85977578     6.69537991    -1.13814596
H     -2.53822743     6.19177776     0.09689237
O     -5.93680867    -1.95420859     2.87014920
H     -5.79883533    -2.86624726     2.57319062
H     -5.42186722    -1.77084427     3.65421622
O     -0.15640397    -4.72269498    -4.07361487
H     -0.58874940    -5.16484592    -4.77934669
H     -0.81467537    -4.26977552    -3.58462797
O      1.16472002    -1.83422971     6.26834333
H      1.92824256    -2.44316345     6.36700125
H      1.05566189    -1.12480685     6.93229358
O     -0.69764242     1.55659849     5.08391385
H      0.10230412     1.04912966     4.84841474
H     -1.13375364     1.81252790     4.23104102
O     -3.04970445    -4.05643466    -6.02480852
H     -3.63950335    -3.69074559    -5.36830347
H     -2.44770671    -3.30849292    -6.22563528
O      0.00831945    -0.92661631    -5.47276658
H     -0.61851705    -1.01750895    -4.70179717
H      0.73627142    -1.42997093    -5.29363668
O      3.17324615    -5.11823739    -2.36637000
H      3.34260149    -6.04044895    -2.27275082
H      2.46768969    -5.05590552    -3.02534565
O     -0.64071739    -5.36367178     3.21389380
H      0.03397515    -4.80271590     3.61616877
H     -1.17943436    -4.66044504     2.84771161
O     -2.52108072     1.62671381     1.81612071
H     -2.05515566     1.85153884     1.03335454
H     -2.96462087     0.77136132     1.70546864
O      4.14133941     4.73856558     1.22814123
H      4.01850629     5.50981663     1.74125054
H      3.59706424     4.11467041     1.74938113
O     -2.81672868    -1.54030762     5.16324920
H     -2.33732032    -2.28534937     5.55063412
H     -2.28623631    -0.76347471     5.51419991
O      0.83214163     3.38968340    -4.96118169
H      0.31313249     3.56937093    -5.70167058
H      0.89394837     2.43715835    -5.00071106
O     -2.37062962     2.19000746    -1.92754989
H     -1.45573727     1.82613623    -1.67281947
H     -2.34037475     3.12642403    -1.94911330
O     -3.90057516     0.22417773    -4.60764286
H     -4.77019194     0.48887393    -4.25274452
H     -3.26731957     0.78854054    -4.14701807
72
droplet n=24 rho=0.20 rep=3
O     -2.87247279    -3.08231370     2.34360524
H     -3.06191676    -2.91630203     3.36235818
H     -2.02856601    -2.62713116     2.34231980
O      4.79430030    -1.62642823    -2.76735165
H      5.35731303    -0.98741092    -2.27922596
H      5.21135450    -2.48423689    -2.63878429
O      1.13266070     1.46445066    -1.24223888
H      1.57875005     0.67590222    -1.52456539
H      1.60448675     2.26820268    -1.57826375
O      2.96766780    -4.01223502     0.83788546
H      2.71342302    -4.83699832     0.50828531
H      3.47457606    -3.67091545     0.02741167
O     -3.28628630    -3.02961453    -2.89150232
H     -4.17456420    -2.76682972    -3.19651409
H     -3.45897538    -3.01124716    -1.92584638
O     -2.56302613     6.49433564     4.39149274
H     -2.49373567     6.33366070     5.38847322
H     -2.88163456     5.68790475     3.99389996
O      1.42817860     5.80957763    -1.59290685
H      1.47923137     6.10423903    -2.51937902
H      0.48175430     5.99502685    -1.34207421
O      2.98854721     0.43910710     3.85157158
H      3.13290937    -0.48720235     3.70185085
H      2.56839574     0.58891228     2.98076610
O      6.82317411     1.97441998    -0.53005030
H      6.93972274     2.85770194    -0.86406746
H      6.39223915     2.28857880     0.27076626
O     -2.68991310     7.48942918    -0.88405558
H     -2.36441158     8.34071612    -1.27166562
H     -3.04286323     7.83711396    -0.03662729
O     -7.35759952    -2.50282705     3.68008625
H     -7.21962618    -3.41486571     3.38312767
H     -6.84265807    -2.31946272     4.46415327
O     -0.22580616    -5.92683573    -5.12949036
H     -0.65815159    -6.36898668    -5.83522219
H     -0.88407755    -5.47391628    -4.64050347
O      1.58990022    -2.27982411     7.98541195
H      2.35342276    -2.88875786     8.08406987
H      1.48084209    -1.57040125     8.64936220
O     -0.78170962     1.96185184     6.33275476
H      0.01823691     1.45438301     6.09725565
H     -1.21782085     2.21778124     5.47988193
O     -3.77558800    -4.99184796    -7.52958133
H     -4.36538690    -4.62615889    -6.87307629
H     -3.17359026    -4.24390622    -7.73040810
O      0.08498445    -1.19649509    -6.79121526
H     -0.54185205    -1.28738773    -6.02024586
H      0.81293642    -1.69984971    -6.61208537
O      4.01732490    -6.50062120    -3.00870045
H      4.18668023    -7.42283277    -2.91508126
H      3.31176843    -6.43828933    -3.66767610
O     -0.72973043    -6.62581965     4.07410115
H     -0.05503789    -6.06486377     4.47637612
H     -1.26844740    -5.92259292     3.70791896
O     -3.10868131     2.01735595     2.23248426
H     -2.64275625     2.24218098     1.44971808
H     -3.55222146     1.16200346     2.12183218
O      5.22570412     6.00543959     1.65869898
H      5.10287101     6.77669063     2.17180828
H      4.68142896     5.38154441     2.17993888
O     -3.39561567    -1.91545750     6.59097762
H     -2.91620732    -2.66049925     6.97836255
H     -2.86512331    -1.13862459     6.94192833
O      1.07456251     4.22622865    -6.29655668
H      0.55555336     4.40591619    -7.03704558
H      1.13636924     3.27370361    -6.33608606
O     -2.83917634     2.83129613    -2.38663740
H     -1.92428400     2.46742489    -2.13190698
H     -2.80892148     3.76771269    -2.40820081
O     -4.86915325     0.37673030    -5.71288741
H     -5.73877003     0.64142651    -5.35798907
H     -4.23589765     0.94109311    -5.25226262
72
droplet-evaporation n=24 rep=3
O     -1.87683210    -1.92602279     1.19665538
H     -2.06627607    -1.76001112     2.21540833
H     -1.03292532    -1.47084025     1.19536994
O      2.56621691    -0.95767375    -1.73985681
H      3.12922965    -0.31865643    -1.25173112
H      2.98327112    -1.81548241    -1.61128945
O      0.43132102     0.81935545    -0.67638432
H      0.87741037     0.03080702    -0.95871082
H      0.90314707     1.62310747    -1.01240919
O      1.59745509    -2.31772416     0.61340256
H      1.34321031    -3.14248746     0.28380241
H      2.10436334    -1.97640460    -0.19707123
O     -1.88199580    -1.84817825    -1.81860751
H     -2.77027370    -1.58539344    -2.12361928
H     -2.05468489    -1.82981088    -0.85295157
O     -1.57077961     3.89955601     2.45324736
H     -1.50148915     3.73888108     3.45022784
H     -1.88938804     3.09312513     2.05565458
O      0.85491668     3.29869549    -0.87374425
H      0.90596945     3.59335688    -1.80021642
H     -0.09150761     3.48414470    -0.62291161
O      1.68271169     0.32854687     2.36106093
H      1.82707385    -0.59776258     2.21134020
H      1.26256023     0.47835204     1.49025545
O      3.93279635     0.95449684    -0.40944821
H      4.04934498     1.83777881    -0.74346537
H      3.50186140     1.26865567     0.39136835
O     -1.67572103     4.18271387    -0.61571438
H     -1.35021951     5.03400081    -1.00332441
H     -2.02867116     4.53039865     0.23171391
O     -4.50216436    -1.40024082     2.05231484
H     -4.36419102    -2.31227949     1.75535626
H     -3.98722291    -1.21687650     2.83638186
O     -0.08632508    -3.50681322    -3.00744403
H     -0.51867051    -3.94896417    -3.71317585
H     -0.74459648    -3.05389377    -2.51845713
O      0.73539409    -1.38429053     4.53453238
H      1.49891663    -1.99322427     4.63319030
H      0.62633596    -0.67486767     5.19848262
O     -0.61275551     1.14739371     3.82289609
H      0.18719102     0.63992488     3.58739697
H     -1.04886674     1.40332311     2.97002325
O     -5.39390040    -6.97093145   -10.82565667
H     -5.98369930    -6.60524238   -10.16915163
H     -4.79190266    -6.22298971   -11.02648344
O     -0.06909308    -0.65410608    -4.14146232
H     -0.69592958    -0.74499872    -3.37049291
H      0.65885889    -1.15746069    -3.96233242
O      2.32093720    -3.72237460    -1.71777650
H      2.49029254    -4.64458617    -1.62415731
H      1.61538074    -3.66004273    -2.37675214
O     -0.55083642    -4.08921729     2.34529897
H      0.12385612    -3.52826141     2.74757394
H     -1.08955339    -3.38599056     1.97911678
O     -1.92775072     1.23226270     1.39569741
H     -1.46182566     1.45708774     0.61293123
H     -2.37129087     0.37691022     1.28504533
O      3.04640157     3.45933889     0.79338532
H      2.92356845     4.23058994     1.30649463
H      2.50212640     2.83544372     1.31462522
O     -2.23219722    -1.16149983     3.72159968
H     -1.75278887    -1.90654158     4.10898460
H     -1.70170486    -0.38466692     4.07255038
O      0.58735703     2.54498139    -3.61278608
H      0.06834788     2.72466892    -4.35327497
H      0.64916376     1.59245634    -3.65231545
O     -1.89751431     1.54246589    -1.46398604
H     -0.98262196     1.17859466    -1.20925561
H     -1.86725944     2.47888246    -1.48554945
O     -2.92255293     0.07013769    -3.49162159
H     -3.79216971     0.33483389    -3.13672326
H     -2.28929734     0.63450050    -3.03099680
72
droplet n=24 rho=0.80 rep=4
O     -1.62989468    -1.46361364     0.65607999
H     -1.45814384    -1.70857492     1.53882973
H     -1.01504861    -0.67834848     0.59993101
O      2.99635369    -0.47616140    -2.11900499
H      3.54632404    -0.13155860    -1.40841068
H      2.83245814    -1.40499704    -2.03373718
O      0.40628149     0.81054027    -0.47624504
H      0.95559873     0.41316036    -1.13420035
H      0.55496789     1.75643193    -0.57065662
O      1.03791452    -2.55812179     0.37326314
H      1.85698839    -3.16719171     0.34369001
H      0.45719231    -3.08672040    -0.22203000
O     -2.19986834    -2.91766225    -2.14360483
H     -2.33319742    -1.97594862    -2.44777428
H     -2.27732908    -2.82066347    -1.20420436
O     -1.86958740     3.44872940     2.68951219
H     -1.33498268     3.11441219     3.37057262
H     -2.51181545     2.79157131     2.47424853
O      0.98595923     3.51612116    -0.98985212
H      1.07519970     3.57835862    -1.96024301
H      0.18537409     4.09365469    -0.84329843
O      1.85633811     0.04692449     2.21399796
H      1.54461999    -0.72800514     1.67316500
H      2.19507538     0.62852238     1.55172348
O      3.83176110     1.28967843     0.57643700
H      4.24875058     2.08741323     0.22973048
H      4.22883946     1.17064164     1.46839750
O     -1.74107767     4.74734093    -0.06486583
H     -2.56467403     5.27690318    -0.18909169
H     -1.73728269     4.53343498     0.88739673
O     -5.27307417    -0.56671002     2.69824798
H     -5.76893026     0.04999492     3.24179790
H     -4.83956643    -1.28206651     3.20544181
O      0.37545306    -3.86289479    -3.07801554
H      0.11007618    -4.55385552    -3.71600673
H     -0.44235317    -3.52280782    -2.55061281
O      1.38685812    -1.70814495     4.47608040
H      1.96871670    -1.67799970     5.25216167
H      1.91474789    -1.40044141     3.73111500
O     -0.56997091     1.13416713     3.12773828
H      0.38736857     1.12710143     2.87027624
H     -1.04872476     1.17051416     2.29109573
O     -2.51744883    -3.35805489    -5.42748355
H     -3.05056024    -3.63933566    -4.64195543
H     -1.99426947    -2.66996495    -5.02693298
O      0.62170732    -0.37797497    -3.55726505
H     -0.01086632    -1.11605408    -3.51811310
H      1.56830499    -0.62065311    -3.31370931
O      3.09277561    -3.92055119    -1.89080136
H      3.50085863    -4.55062536    -2.50125466
H      2.15202517    -3.87817307    -2.14582852
O     -0.68466625    -4.49542603     2.91082822
H     -0.09044595    -3.82076208     3.24641176
H     -1.38811944    -4.13744175     3.34618266
O     -3.80504226     1.43868728     1.36286506
H     -3.36153715     1.08268590     0.55481450
H     -3.84797372     0.68528647     1.99677675
O      3.63235384     4.38792672     0.92517131
H      3.53292615     4.77074533     0.04789719
H      2.83884340     3.86472786     0.99297964
O     -1.59030754    -1.58101474     3.60730340
H     -0.78867151    -1.94885865     4.05992403
H     -1.46898804    -0.64993936     3.59124946
O      0.28051475     2.61219206    -3.54249093
H     -0.51359590     2.78917316    -4.13742256
H      0.19444646     1.60816258    -3.40606129
O     -2.03367332     1.74574759    -1.32135926
H     -1.24520274     1.18804286    -1.00779718
H     -1.82156571     2.66537664    -1.04059229
O     -3.06852041    -0.46531760    -3.79082357
H     -3.00531412     0.30930681    -3.17767336
H     -3.19895209    -0.05850336    -4.66276137
72
droplet n=24 rho=0.60 rep=4
O     -1.74273554    -1.58293840     0.75973472
H     -1.57098471    -1.82789968     1.64248446
H     -1.12788947    -0.79767324     0.70358574
O      3.33567313    -0.53383195    -2.29567272
H      3.88564348    -0.18922915    -1.58507840
H      3.17177759    -1.46266759    -2.21040491
O      0.49539424     0.92036721    -0.53952061
H      1.04471147     0.52298730    -1.19747592
H      0.64408063     1.86625886    -0.63393219
O      1.17517618    -2.84389223     0.39976145
H      1.99425005    -3.45296215     0.37018832
H      0.59445396    -3.37249084    -0.19553169
O     -2.40353253    -3.16660563    -2.32813711
H     -2.53686162    -2.22489201    -2.63230656
H     -2.48099328    -3.06960685    -1.38873664
O     -2.03655035     3.77240739     2.98571239
H     -1.50194563     3.43809019     3.66677282
H     -2.67877840     3.11524930     2.77044873
O      1.08613206     3.90130581    -1.10721599
H      1.17537254     3.96354327    -2.07760688
H      0.28554692     4.47883934    -0.96066231
O      2.06887822     0.05501231     2.40635374
H      1.75716010    -0.71991732     1.86552079
H      2.40761549     0.63661020     1.74407926
O      4.26951604     1.45209441     0.66263780
H      4.68650552     2.24982921     0.31593127
H      4.66659441     1.33305761     1.55459829
O     -1.91899886     5.24556528    -0.03372065
H     -2.74259522     5.77512753    -0.15794651
H     -1.91520388     5.03165934     0.91854190
O     -5.78105339    -0.61720357     3.01495086
H     -6.27690948    -0.00049864     3.55850078
H     -5.34754566    -1.33256007     3.52214469
O      0.40170884    -4.25358576    -3.38160953
H      0.13633196    -4.94454649    -4.01960072
H     -0.41609739    -3.91349879    -2.85420680
O      1.58847146    -1.85887180     4.93750270
H      2.17033004    -1.82872654     5.71358396
H      2.11636123    -1.55116826     4.19253729
O     -0.58647149     1.25914579     3.41571186
H      0.37086799     1.25208008     3.15824983
H     -1.06522534     1.29549281     2.57906931
O     -2.74633683    -3.67251921    -5.92403378
H     -3.27944823    -3.95379998    -5.13850566
H     -2.22315747    -2.98442927    -5.52348321
O      0.71961950    -0.43906619    -3.89589779
H      0.08704585    -1.17714530    -3.85674583
H      1.66621717    -0.68174433    -3.65234204
O      3.41097771    -4.32498963    -2.10023596
H      3.81906073    -4.95506380    -2.71068927
H      2.47022727    -4.28261151    -2.35526313
O     -0.73242987    -4.90336281     3.23953891
H     -0.13820957    -4.22869886     3.57512246
H     -1.43588306    -4.54537853     3.67489336
O     -4.14974534     1.55611362     1.50408006
H     -3.70624023     1.20011225     0.69602951
H     -4.19267680     0.80271282     2.13799176
O      3.99277423     4.83467988     1.00102214
H      3.89334653     5.21749849     0.12374803
H      3.19926378     4.31148103     1.06883048
O     -1.69458978    -1.71138587     3.99489173
H     -0.89295375    -2.07922978     4.44751236
H     -1.57327028    -0.78031049     3.97883779
O      0.30402599     2.85719502    -3.90450247
H     -0.49008466     3.03417612    -4.49943409
H      0.21795770     1.85316554    -3.76807283
O     -2.17997292     1.94343651    -1.42451092
H     -1.39150233     1.38573178    -1.11094884
H     -1.96786531     2.86306556    -1.14374395
O     -3.35479162    -0.46266299    -4.17112800
H     -3.29158534     0.31196143    -3.55797778
H     -3.48522331    -0.05584875    -5.04306579
72
droplet n=24 rho=0.40 rep=4
O     -1.92131968    -1.77178408     0.92378071
H     -1.74956884    -2.01674536     1.80653044
H     -1.30647361    -0.98651892     0.86763173
O      3.87268664    -0.62510247    -2.57527048
H      4.42265699    -0.28049967    -1.86467617
H      3.70879109    -1.55393811    -2.49000267
O      0.63642578     1.09418144    -0.63966175
H      1.18574302     0.69680153    -1.29761706
H      0.78511218     2.04007309    -0.73407333
O      1.39240912    -3.29615805     0.44169819
H      2.21148299    -3.90522797     0.41212506
H      0.81168691    -3.82475666    -0.15359495
O     -2.72585543    -3.56058824    -2.62018147
H     -2.85918451    -2.61887462    -2.92435092
H     -2.80331618    -3.46358946    -1.68078100
O     -2.30078914     4.28466644     3.45448456
H     -1.76618443     3.95034923     4.13554498
H     -2.94301720     3.62750835     3.23922089
O      1.24466753     4.51090648    -1.29295833
H      1.33390801     4.57314394    -2.26334921
H      0.44408239     5.08844001    -1.14640464
O      2.40524831     0.06781226     2.71077972
H      2.09353018    -0.70711737     2.16994677
H      2.74398558     0.64941014     2.04850524
O      4.96231549     1.70913707     0.79906084
H      5.37930497     2.50687188     0.45235432
H      5.35939385     1.59010028     1.69102134
O     -2.20058038     6.03406478     0.01557030
H     -3.02417674     6.56362702    -0.10865555
H     -2.19678540     5.82015883     0.96783286
O     -6.58499112    -0.69711565     3.51617097
H     -7.08084722    -0.08041071     4.05972089
H     -6.15148339    -1.41247214     4.02336480
O      0.44326175    -4.87190085    -3.86208325
H      0.17788487    -5.56286157    -4.50007445
H     -0.37454448    -4.53181388    -3.33468053
O      1.90754862    -2.09741501     5.66775854
H      2.48940721    -2.06726976     6.44383981
H      2.43543839    -1.78971147     4.92279314
O     -0.61258563     1.45693943     3.87146443
H      0.34475386     1.44987372     3.61400239
H     -1.09133948     1.49328645     3.03482188
O     -3.10857939    -4.17019652    -6.70988377
H     -3.64169080    -4.45147729    -5.92435565
H     -2.58540003    -3.48210658    -6.30933320
O      0.87457719    -0.53575033    -4.43182449
H      0.24200355    -1.27382944    -4.39267254
H      1.82117487    -0.77842848    -4.18826875
O      3.91457050    -4.96506172    -2.43169122
H      4.32265353    -5.59513590    -3.04214453
H      2.97382007    -4.92268361    -2.68671839
O     -0.80802150    -5.54897144     3.75976282
H     -0.21380120    -4.87430749     4.09534636
H     -1.51147469    -5.19098716     4.19511726
O     -4.69527910     1.74195483     1.72756966
H     -4.25177398     1.38595345     0.91951911
H     -4.73821056     0.98855403     2.36148135
O      4.56318249     5.54172008     1.12106514
H      4.46375480     5.92453869     0.24379103
H      3.76967205     5.01852123     1.18887348
O     -1.85962886    -1.91771374     4.60829651
H     -1.05799283    -2.28555765     5.06091714
H     -1.73830936    -0.98663836     4.59224258
O      0.34123533     3.24494144    -4.47742893
H     -0.45287532     3.42192254    -5.07236055
H      0.25516704     2.24091196    -4.34099929
O     -2.41150948     2.25630282    -1.58776073
H     -1.62303890     1.69859809    -1.27419866
H     -2.19940187     3.17593187    -1.30699376
O     -3.80784998    -0.45846175    -4.77300513
H     -3.74464370     0.31616267    -4.15985491
H     -3.93828167    -0.05164751    -5.64494292
72
droplet n=24 rho=0.20 rep=4
O     -2.28849218    -2.16005450     1.26106247
H     -2.11674134    -2.40501578     2.14381221
H     -1.67364611    -1.37478934     1.20491349
O      4.97679698    -0.81275646    -3.15012898
H      5.52676733    -0.46815366    -2.43953466
H      4.81290143    -1.74159211    -3.06486117
O      0.92638942     1.45154691    -0.84555389
H      1.47570666     1.05416700    -1.50350921
H      1.07507581     2.39743857    -0.93996547
O      1.83904433    -4.22602548     0.52792096
H      2.65811821    -4.83509539     0.49834782
H      1.25832212    -4.75462409    -0.06737218
O     -3.38855764    -4.37062423    -3.22063042
H     -3.52188672    -3.42891061    -3.52479987
H     -3.46601839    -4.27362546    -2.28122995
O     -2.84406930     5.33788111     4.41828934
H     -2.30946458     5.00356390     5.09934977
H     -3.48629735     4.68072302     4.20302568
O      1.57061957     5.76425745    -1.67484822
H      1.65986005     5.82649491    -2.64523911
H      0.77003443     6.34179098    -1.52829453
O      3.09683182     0.09412920     3.33668552
H      2.78511370    -0.68080043     2.79585256
H      3.43556909     0.67572708     2.67441104
O      6.38672476     2.23762185     1.07954931
H      6.80371424     3.03535665     0.73284279
H      6.78380312     2.11858505     1.97150980
O     -2.77951752     7.65523524     0.11691348
H     -3.60311388     8.18479748    -0.00731238
H     -2.77572254     7.44132929     1.06917603
O     -8.23790291    -0.86141645     4.54668936
H     -8.73375901    -0.24471151     5.09023928
H     -7.80439518    -1.57677294     5.05388319
O      0.52869535    -6.14316882    -4.84994668
H      0.26331847    -6.83412955    -5.48793787
H     -0.28911089    -5.80308185    -4.32254395
O      2.56357755    -2.58786455     7.16917892
H      3.14543613    -2.55771929     7.94526019
H      3.09146732    -2.28016101     6.42421352
O     -0.66627680     1.86360703     4.80850066
H      0.29106268     1.85654133     4.55103863
H     -1.14503065     1.89995406     3.97185811
O     -3.85335723    -5.19343085    -8.32560679
H     -4.38646864    -5.47471162    -7.54007867
H     -3.33017787    -4.50534091    -7.92505622
O      1.19317327    -0.73453484    -5.53370034
H      0.56059962    -1.47261395    -5.49454838
H      2.13977094    -0.97721298    -5.29014459
O      4.94996718    -6.28106253    -3.11316975
H      5.35805021    -6.91113671    -3.72362306
H      4.00921675    -6.23868442    -3.36819692
O     -0.96343937    -6.87635549     4.82935339
H     -0.36921907    -6.20169154     5.16493694
H     -1.66689257    -6.51837120     5.26470784
O     -5.81690723     2.12404800     2.18706867
H     -5.37340212     1.76804662     1.37901811
H     -5.85983869     1.37064720     2.82098036
O      5.73595310     6.99540862     1.36787591
H      5.63652541     7.37822723     0.49060180
H      4.94244266     6.47220977     1.43568424
O     -2.19895245    -2.34192790     5.86946881
H     -1.39731642    -2.70977182     6.32208944
H     -2.07763295    -1.41085253     5.85341487
O      0.41773846     4.04215570    -5.65537699
H     -0.37637218     4.21913680    -6.25030862
H      0.33167018     3.03812622    -5.51894735
O     -2.88755321     2.89956210    -1.92340555
H     -2.09908263     2.34185737    -1.60984348
H     -2.67544561     3.81919116    -1.64263858
O     -4.73934688    -0.44982391    -6.01047634
H     -4.67614060     0.32480050    -5.39732612
H     -4.86977857    -0.04300967    -6.88241414
72
droplet-evaporation n=24 rep=4
O     -1.55056706    -1.37972781     0.58321026
H     -1.37881622    -1.62468910     1.46596000
H     -0.93572099    -0.59446265     0.52706128
O      2.75781065    -0.43561876    -1.99480681
H      3.30778100    -0.09101595    -1.28421250
H      2.59391510    -1.36445440    -1.90953900
O      0.34363485     0.73333146    -0.43176204
H      0.89295209     0.33595155    -1.08971736
H      0.49232124     1.67922312    -0.52617362
O      0.94141898    -2.35722393     0.35463471
H      1.76049285    -2.96629385     0.32506158
H      0.36069677    -2.88582254    -0.24065843
O     -2.05669152    -2.74265397    -2.01387783
H     -2.19002061    -1.80094035    -2.31804729
H     -2.13415227    -2.64565520    -1.07447736
O     -1.75221172     3.22118237     2.48128217
H     -1.21760701     2.88686517     3.16234259
H     -2.39443977     2.56402428     2.26601850
O      0.91553729     3.24533468    -0.90734481
H      1.00477777     3.30757214    -1.87773569
H      0.11495215     3.82286821    -0.76079112
O      1.70692149     0.04123872     2.07877101
H      1.39520337    -0.73369092     1.53793806
H      2.04565876     0.62283660     1.41649653
O      3.52401747     1.17549930     0.51583747
H      3.94100695     1.97323410     0.16913095
H      3.92109584     1.05646250     1.40779796
O     -1.61599830     4.39708705    -0.08676102
H     -2.43959466     4.92664930    -0.21098688
H     -1.61220332     4.18318110     0.86550153
O     -4.91596257    -0.53121283     2.47560448
H     -5.41181867     0.08549211     3.01915440
H     -4.48245484    -1.24656932     2.98279831
O      0.35699513    -3.58823734    -2.86458765
H      0.09161825    -4.27919807    -3.50257884
H     -0.46081110    -3.24815037    -2.33718492
O      1.24512307    -1.60218333     4.15169853
H      1.82698165    -1.57203808     4.92777979
H      1.77301284    -1.29447979     3.40673312
O     -0.55837094     1.04630660     2.92529160
H      0.39896855     1.03924089     2.66782957
H     -1.03712479     1.08265362     2.08864905
O     -5.15981604    -6.93608333   -11.05856846
H     -5.69292744    -7.21736410   -10.27304034
H     -4.63663668    -6.24799339   -10.65801789
O      0.55287464    -0.33502758    -3.31920478
H     -0.07969900    -1.07310669    -3.28005282
H      1.49947231    -0.57770572    -3.07564904
O      2.86907815    -3.63622921    -1.74356792
H      3.27716118    -4.26630339    -2.35402122
H      1.92832772    -3.59385109    -1.99859508
O     -0.65108822    -4.20864471     2.67974317
H     -0.05686792    -3.53398076     3.01532672
H     -1.35454141    -3.85066042     3.11509762
O     -3.56271450     1.35613605     1.26359030
H     -3.11920939     1.00013467     0.45553974
H     -3.60564596     0.60273524     1.89750199
O      3.37897675     4.07385731     0.87184784
H      3.27954906     4.45667592    -0.00542627
H      2.58546631     3.55065845     0.93965617
O     -1.51699668    -1.48936327     3.33482712
H     -0.71536065    -1.85720718     3.78744775
H     -1.39567718    -0.55828789     3.31877319
O      0.26398625     2.43995392    -3.28799525
H     -0.53012440     2.61693502    -3.88292688
H      0.17791796     1.43592444    -3.15156561
O     -1.93082407     1.60677142    -1.24884319
H     -1.14235349     1.04906669    -0.93528112
H     -1.71871647     2.52640047    -0.96807622
O     -2.86727050    -0.46718381    -3.52346792
H     -2.80406421     0.30744061    -2.91031770
H     -2.99770218    -0.06036957    -4.39540572
72
droplet n=24 rho=0.80 rep=5
O     -2.09404942    -1.14376610    -0.31708472
H     -2.82771715    -1.04546999     0.32648992
H     -1.42941730    -0.41564070    -0.22792430
O      3.16328021    -0.00476641    -1.66603703
H      3.36688953     0.26445393    -0.72883576
H      3.61230405    -0.85548727    -1.68648993
O     -0.01929186     1.04459828    -0.57944305
H      0.22798879     0.61453688    -1.40814042
H      0.57196774     1.84886189    -0.69806772
O      1.20864764    -3.54342455     0.05564655
H      0.88790791    -3.90719638    -0.76284544
H      0.59122616    -3.84627026     0.71182782
O     -2.02698896    -3.71797813    -1.90425829
H     -2.55262362    -3.90679142    -2.69639676
H     -2.29744225    -2.96638601    -1.38885422
O     -2.29127473     3.61685831     2.66681764
H     -1.80815266     3.36851713     3.39611183
H     -2.75133028     2.81813576     2.37213624
O      1.06422296     3.71894197    -0.95815906
H      0.99362645     4.00637283    -1.87339827
H      0.41590607     4.25108955    -0.44807005
O      2.10281547    -0.93778696     2.07201990
H      1.76442059    -1.48268944     1.34393907
H      2.95412771    -0.53540111     1.92551477
O      4.46783669     1.15728408     0.82991248
H      4.39985691     2.12761686     0.99327446
H      5.38877213     0.94532351     0.58310135
O     -1.67262480     4.33724022    -0.14567400
H     -2.44051337     4.77941154    -0.51555097
H     -1.81123330     4.15979311     0.76899044
O     -5.23342523    -0.07853521     3.71388372
H     -5.47347129    -0.69992122     4.35281469
H     -4.42275253    -0.31850453     3.28397539
O      0.57308210    -3.31557200    -2.97024797
H      0.32443968    -3.42164850    -3.92937306
H     -0.22881778    -3.47995385    -2.49752369
O      1.24798532    -2.27760708     4.79431220
H      2.09623128    -2.45290527     5.13018258
H      1.51113077    -1.94955964     3.90025267
O     -0.85877198     0.57367055     2.12396884
H     -0.07840994     0.45435800     2.69310300
H     -0.57503739     1.02862069     1.31901255
O     -2.27986512    -3.01177831    -5.11598566
H     -3.02451024    -3.42472361    -5.60344119
H     -2.65049307    -2.21076965    -4.71788524
O      0.67213751    -0.51130050    -2.84152139
H      0.62375532    -1.49507023    -2.77180814
H      1.57400880    -0.30766030    -2.60399887
O      3.40661895    -2.81203117    -2.08132139
H      2.91404948    -3.00585812    -1.26721093
H      2.81005328    -2.81093750    -2.82273106
O     -0.24939213    -4.19335104     2.32148362
H     -0.90237865    -4.89963824     2.28905018
H     -0.58639602    -3.62270956     2.96437895
O     -4.03433352     1.65648118     1.11730820
H     -3.83506026     1.75270465     0.15140685
H     -4.96101577     1.60813680     1.21549285
O      3.56836972     4.49967359     0.88612029
H      3.88703699     5.28587231     0.41806669
H      2.66845322     4.39127933     0.53166199
O     -1.66410787    -1.85469229     3.55771057
H     -0.96597608    -1.78745759     4.17857214
H     -1.72154327    -1.02386860     2.95990918
O     -0.21355135     2.87045946    -3.35626015
H     -1.06450112     2.73995757    -3.07634042
H      0.19990468     1.99606980    -3.50733018
O     -2.83789635     2.09570438    -1.68428140
H     -2.11240864     1.67869360    -1.21271378
H     -2.78717756     3.04722295    -1.33869357
O     -2.39853075    -0.78731110    -3.27198722
H     -1.49309924    -0.46869833    -3.35246112
H     -2.55590397    -0.81968501    -2.32012423
72
droplet n=24 rho=0.60 rep=5
O     -2.27919789    -1.22190960    -0.31267384
H     -3.01286562    -1.12361349     0.33090080
H     -1.61456578    -0.49378420    -0.22351342
O      3.53145226    -0.01551045    -1.79121479
H      3.73506158     0.25370989    -0.85401352
H      3.98047610    -0.86623131    -1.81166769
O      0.03481516     1.17152625    -0.65779821
H      0.28209580     0.74146484    -1.48649558
H      0.62607476     1.97578985    -0.77642289
O      1.32673361    -3.91316315     0.06754348
H      1.00599388    -4.27693499    -0.75094851
H      0.70931213    -4.21600887     0.72372475
O     -2.22977907    -4.06404109    -2.09344954
H     -2.75541373    -4.25285438    -2.88558801
H     -2.50023237    -3.31244897    -1.57804547
O     -2.49318264     3.95498487     2.96153442
H     -2.01006057     3.70664369     3.69082861
H     -2.95323819     3.15626232     2.66685302
O      1.17512889     4.12996360    -1.05644062
H      1.10453238     4.41739445    -1.97167983
H      0.52681200     4.66211118    -0.54635161
O      2.35957268    -1.02770564     2.26295448
H      2.02117780    -1.57260813     1.53487365
H      3.21088491    -0.62531979     2.11644936
O      4.97402277     1.30844095     0.92237901
H      4.90604299     2.27877373     1.08574100
H      5.89495821     1.09648039     0.67556788
O     -1.84345480     4.79187492    -0.13031710
H     -2.61134337     5.23404624    -0.50019406
H     -1.98206330     4.61442780     0.78434735
O     -5.71306901    -0.10609195     4.10641177
H     -5.95311508    -0.72747795     4.74534275
H     -4.90239631    -0.34606126     3.67650344
O      0.62343312    -3.64908884    -3.27375677
H      0.37479070    -3.75516534    -4.23288186
H     -0.17846676    -3.81347069    -2.80103249
O      1.43878764    -2.49246307     5.26983917
H      2.28703360    -2.66776126     5.60570955
H      1.70193309    -2.16441564     4.37577964
O     -0.88158542     0.65190947     2.34156061
H     -0.10122338     0.53259692     2.91069476
H     -0.59785083     1.10685961     1.53660432
O     -2.51881315    -3.29262887    -5.62212681
H     -3.26345827    -3.70557418    -6.10958234
H     -2.88944111    -2.49162022    -5.22402639
O      0.79633315    -0.57968686    -3.10545034
H      0.74795095    -1.56345659    -3.03573709
H      1.69820443    -0.37604666    -2.86792782
O      3.74084928    -3.09226296    -2.27661003
H      3.24827981    -3.28608991    -1.46249957
H      3.14428360    -3.09116930    -3.01801970
O     -0.27978554    -4.61068705     2.58734444
H     -0.93277206    -5.31697425     2.55491100
H     -0.61678943    -4.04004558     3.23023977
O     -4.43684363     1.83404321     1.21238874
H     -4.23757038     1.93026667     0.24648739
H     -5.36352588     1.78569882     1.31057339
O      3.93591732     4.98451377     0.95945002
H      4.25458459     5.77071249     0.49139643
H      3.03600082     4.87611951     0.60499173
O     -1.78217627    -2.00198188     3.92828241
H     -1.08404448    -1.93474718     4.54914399
H     -1.83961167    -1.17115819     3.33048103
O     -0.22180279     3.13488140    -3.67797806
H     -1.07275256     3.00437951    -3.39805832
H      0.19165324     2.26049174    -3.82904809
O     -3.06955163     2.33379606    -1.81463641
H     -2.34406393     1.91678527    -1.34306879
H     -3.01883285     3.28531462    -1.46904858
O     -2.58691153    -0.84770186    -3.56031337
H     -1.68148002    -0.52908909    -3.64078727
H     -2.74428475    -0.88007578    -2.60845038
72
droplet n=24 rho=0.40 rep=5
O     -2.57221744    -1.34558101    -0.30569310
H     -3.30588517    -1.24728490     0.33788154
H     -1.90758532    -0.61745561    -0.21653267
O      4.11412846    -0.03251417    -1.98932353
H      4.31773778     0.23670617    -1.05212226
H      4.56315230    -0.88323504    -2.00977643
O      0.12044598     1.37240490    -0.78180461
H      0.36772662     0.94234350    -1.61050198
H      0.71170558     2.17666851    -0.90042928
O      1.51361876    -4.49831862     0.08637180
H      1.19287903    -4.86209046    -0.73212019
H      0.89619728    -4.80116434     0.74255307
O     -2.55071862    -4.61172702    -2.39286727
H     -3.07635328    -4.80054032    -3.18500574
H     -2.82117192    -3.86013490    -1.87746320
O     -2.81272600     4.49011049     3.42795889
H     -2.32960393     4.24176930     4.15725308
H     -3.27278155     3.69138794     3.13327749
O      1.35065077     4.78045437    -1.21198292
H      1.28005426     5.06788522    -2.12722213
H      0.70233388     5.31260195    -0.70189391
O      2.76592159    -1.17001269     2.56513125
H      2.42752671    -1.71491517     1.83705042
H      3.61723383    -0.76762684     2.41862612
O      5.77512265     1.54766474     1.06871833
H      5.70714286     2.51799752     1.23208032
H      6.69605808     1.33570417     0.82190721
O     -2.11381365     5.51138858    -0.10601297
H     -2.88170222     5.95355990    -0.47588993
H     -2.25242215     5.33394147     0.80865148
O     -6.47216254    -0.14970376     4.72763427
H     -6.71220860    -0.77108977     5.36656524
H     -5.66148984    -0.38967308     4.29772594
O      0.70311962    -4.17691903    -3.75409567
H      0.45447720    -4.28299553    -4.71322076
H     -0.09878026    -4.34130088    -3.28137140
O      1.74075509    -2.83249832     6.02241735
H      2.58900105    -3.00779651     6.35828773
H      2.00390054    -2.50445089     5.12835782
O     -0.91769042     0.77573189     2.68592554
H     -0.13732837     0.65641935     3.25505970
H     -0.63395582     1.23068204     1.88096925
O     -2.89697693    -3.73710841    -6.42315558
H     -3.64162205    -4.15005372    -6.91061111
H     -3.26760488    -2.93609976    -6.02505517
O      0.99288756    -0.68791643    -3.52314940
H      0.94450537    -1.67168616    -3.45343615
H      1.89475885    -0.48427623    -3.28562688
O      4.26980865    -3.53576322    -2.58567761
H      3.77723918    -3.72959016    -1.77156715
H      3.67324298    -3.53466955    -3.32708728
O     -0.32788674    -5.27117110     3.00810091
H     -0.98087326    -5.97745830     2.97566747
H     -0.66489063    -4.70052963     3.65099624
O     -5.07386392     2.11505630     1.36286504
H     -4.87459066     2.21127976     0.39696369
H     -6.00054617     2.06671192     1.46104969
O      4.51760526     5.75183121     1.07550308
H      4.83627253     6.53802994     0.60744949
H      3.61768876     5.64343696     0.72104479
O     -1.96903360    -2.23508524     4.51475658
H     -1.27090181    -2.16785053     5.13561815
H     -2.02646900    -1.40426154     3.91695519
O     -0.23486168     3.55336068    -4.18713503
H     -1.08581145     3.42285878    -3.90721530
H      0.17859435     2.67897101    -4.33820506
O     -3.43617377     2.71060454    -2.02093876
H     -2.71068606     2.29359375    -1.54937114
H     -3.38545498     3.66212310    -1.67535093
O     -2.88504658    -0.94327746    -4.01662391
H     -1.97961507    -0.62466469    -4.09709781
H     -3.04241980    -0.97565137    -3.06476092
72
droplet n=24 rho=0.20 rep=5
O     -3.17467139    -1.59985186    -0.29134055
H     -3.90833912    -1.50155575     0.35223409
H     -2.51003928    -0.87172646    -0.20218012
O      5.31212219    -0.06747417    -2.39663899
H      5.51573151     0.20174617    -1.45943772
H      5.76114603    -0.91819503    -2.41709189
O      0.29650462     1.78541536    -1.03676420
H      0.54378526     1.35535396    -1.86546157
H      0.88776422     2.58967897    -1.15538887
O      1.89785830    -5.70140977     0.12508319
H      1.57711856    -6.06518160    -0.69340880
H      1.28043681    -6.00425549     0.78126446
O     -3.21057665    -5.73778007    -3.00847601
H     -3.73621131    -5.92659336    -3.80061448
H     -3.48102995    -4.98618795    -2.49307194
O     -3.46971343     5.59033928     4.38693676
H     -2.98659136     5.34199810     5.11623095
H     -3.92976898     4.79161673     4.09225536
O      1.71152720     6.11787618    -1.53178095
H      1.64093069     6.40530703    -2.44702017
H      1.06321031     6.65002376    -1.02169194
O      3.60138295    -1.46259878     3.18641262
H      3.26298807    -2.00750126     2.45833179
H      4.45269518    -1.06021293     3.03990750
O      7.42219974     2.03951354     1.36959486
H      7.35421995     3.00984633     1.53295685
H      8.34313517     1.82755298     1.12278374
O     -2.66967676     6.99072281    -0.05604319
H     -3.43756533     7.43289414    -0.42592016
H     -2.80828526     6.81327570     0.85862125
O     -8.03287376    -0.23937052     6.00487992
H     -8.27291982    -0.86075653     6.64381090
H     -7.22220106    -0.47933984     5.57497159
O      0.86695663    -5.26214829    -4.74168190
H      0.61831421    -5.36822479    -5.70080699
H      0.06505675    -5.42653014    -4.26895762
O      2.36160609    -3.53161748     7.56973289
H      3.20985205    -3.70691567     7.90560327
H      2.62475154    -3.20357005     6.67567336
O     -0.99192299     1.03031323     3.39394662
H     -0.21156095     0.91100068     3.96308077
H     -0.70818840     1.48526337     2.58899032
O     -3.67448909    -4.65096708    -8.07008648
H     -4.41913421    -5.06391239    -8.55754201
H     -4.04511704    -3.84995843    -7.67198607
O      1.39700731    -0.91043856    -4.38194687
H      1.34862512    -1.89420828    -4.31223363
H      2.29887859    -0.70679836    -4.14442436
O      5.35735952    -4.44760845    -3.22112662
H      4.86479005    -4.64143540    -2.40701617
H      4.76079385    -4.44651478    -3.96253629
O     -0.42678375    -6.62913929     3.87318448
H     -1.07977027    -7.33542649     3.84075105
H     -0.76378764    -6.05849782     4.51607981
O     -6.38359015     2.69282474     1.67224727
H     -6.18431690     2.78904821     0.70634593
H     -7.31027240     2.64448036     1.77043192
O      5.71356710     7.32945097     1.31411045
H      6.03223437     8.11564969     0.84605686
H      4.81365060     7.22105671     0.95965216
O     -2.35321595    -2.71435031     5.72055899
H     -1.65508416    -2.64711561     6.34142056
H     -2.41065135    -1.88352662     5.12275760
O     -0.26171102     4.41376229    -5.23397178
H     -1.11266078     4.28326039    -4.95405205
H      0.15174502     3.53937262    -5.38504182
O     -4.18995609     3.48533019    -2.44510045
H     -3.46446838     3.06831940    -1.97353283
H     -4.13923730     4.43684875    -2.09951262
O     -3.49801811    -1.13978276    -4.95480736
H     -2.59258660    -0.82116999    -5.03528127
H     -3.65539133    -1.17215668    -4.00294438
72
droplet-evaporation n=24 rep=5
O     -1.96388924    -1.08883088    -0.32018559
H     -2.69755697    -0.99053478     0.32338905
H     -1.29925713    -0.36070549    -0.23102517
O      2.90445366     0.00278670    -1.57803653
H      3.10806299     0.27200704    -0.64083525
H      3.35347750    -0.84793416    -1.59848942
O     -0.05732932     0.95536737    -0.52435903
H      0.18995132     0.52530596    -1.35305640
H      0.53393028     1.75963098    -0.64298370
O      1.12563269    -3.28349670     0.04728295
H      0.80489296    -3.64726854    -0.77120904
H      0.50821120    -3.58634242     0.70346422
O     -1.88442663    -3.47469437    -1.77125602
H     -2.41006129    -3.66350766    -2.56339449
H     -2.15487993    -2.72310225    -1.25585195
O     -2.14933260     3.37915388     2.45963047
H     -1.66621052     3.13081270     3.18892466
H     -2.60938815     2.58043133     2.16494907
O      0.98625560     3.42999199    -0.88906669
H      0.91565909     3.71742284    -1.80430590
H      0.33793871     3.96213957    -0.37897768
O      1.92231405    -0.87457373     1.93779206
H      1.58391917    -1.41947622     1.20971123
H      2.77362628    -0.47218788     1.79128693
O      4.11198569     1.05102014     0.76490810
H      4.04400590     2.02135293     0.92827009
H      5.03292112     0.83905958     0.51809698
O     -1.55253058     4.01763006    -0.15646997
H     -2.32041915     4.45980138    -0.52634694
H     -1.69113908     3.84018294     0.75819447
O     -4.89623357    -0.05916271     3.43793479
H     -5.13627963    -0.68054872     4.07686577
H     -4.08556087    -0.29913202     3.00802646
O      0.53768511    -3.08110822    -2.75687996
H      0.28904269    -3.18718472    -3.71600505
H     -0.26421477    -3.24549007    -2.28415568
O      1.11385046    -2.12656238     4.46001468
H      1.96209642    -2.30186057     4.79588505
H      1.37699591    -1.79851495     3.56595515
O     -0.84273403     0.51866826     1.97100089
H     -0.06237199     0.39935571     2.54013505
H     -0.55899944     0.97361840     1.16604460
O     -4.13086234    -5.14806603    -8.91590575
H     -4.87550746    -5.56101134    -9.40336128
H     -4.50149029    -4.34705738    -8.51780533
O      0.58482744    -0.46322460    -2.65597819
H      0.53644525    -1.44699432    -2.58626495
H      1.48669872    -0.25958440    -2.41845568
O      3.17165359    -2.61502701    -1.94403262
H      2.67908412    -2.80885396    -1.12992217
H      2.57508791    -2.61393334    -2.68544229
O     -0.22802543    -3.89996201     2.13458231
H     -0.88101195    -4.60624921     2.10214888
H     -0.56502932    -3.32932053     2.77747764
O     -3.75136716     1.53165431     1.05046617
H     -3.55209391     1.62787777     0.08456482
H     -4.67804942     1.48330993     1.14865082
O      3.30998217     4.15882884     0.83456916
H      3.62864944     4.94502756     0.36651557
H      2.41006566     4.05043458     0.48011087
O     -1.58110527    -1.75114707     3.29719696
H     -0.88297348    -1.68391237     3.91805853
H     -1.63854068    -0.92032338     2.69939557
O     -0.20775056     2.68456970    -3.13009107
H     -1.05870032     2.55406780    -2.85017134
H      0.20570548     1.81018003    -3.28116110
O     -2.67504168     1.92832491    -1.59264127
H     -1.94955397     1.51131412    -1.12107365
H     -2.62432289     2.87984347    -1.24705344
O     -2.26609825    -0.74485612    -3.06929268
H     -1.36066674    -0.42624336    -3.14976658
H     -2.42347147    -0.77723004    -2.11742969
72
droplet n=24 rho=0.80 rep=6
O     -3.25678528    -1.08623290    -0.42277339
H     -3.66604630    -0.22062131    -0.40080639
H     -3.02629586    -1.29289508     0.46504288
O      3.42454492     0.88568714    -1.49223104
H      3.16112098     1.12086158    -0.65112300
H      3.83498753    -0.05063093    -1.43665241
O     -0.23381518     0.89384098    -0.36739006
H      0.17013097     0.35645971    -1.14123246
H      0.05350612     1.79668608    -0.51989767
O      2.15520788    -4.00054668    -0.37554364
H      1.79949567    -4.41780047    -1.21229645
H      1.43800884    -3.74129207     0.18877554
O     -1.39070753    -4.37504741    -1.58169265
H     -1.60923158    -5.26738844    -1.92157817
H     -2.12298723    -3.80618211    -1.74861390
O     -2.46857390     2.97719230     2.23436448
H     -1.69565871     2.34301811     2.33957222
H     -3.17008613     2.45886463     1.78499624
O      1.20209218     3.67791528    -0.94581327
H      1.30352518     3.29345479    -1.83904143
H      0.49126926     4.30454085    -1.08686595
O      1.85505665    -0.93230805     2.10802150
H      1.99996226    -1.85126280     2.04059735
H      2.67626519    -0.42713183     2.15068829
O      4.53602944     0.32370959     1.69684826
H      4.93649164     1.24295909     1.75974940
H      5.18805479    -0.21613971     1.29406008
O     -2.03375233     5.19853964     0.28547952
H     -2.74636592     5.80696502     0.45123391
H     -1.84195155     4.73735532     1.13320360
O     -4.83575992     0.30195341     3.80311138
H     -5.62130266     0.21610334     4.36118683
H     -4.22670937    -0.34458420     4.20252706
O      0.67161624    -3.21826407    -3.59054058
H     -0.00907415    -3.40081941    -4.29264546
H      0.14790392    -3.03490448    -2.79710728
O      0.47582642    -2.60383857     4.72043754
H      1.05284640    -3.32221093     4.36775929
H      1.02716924    -1.97666585     5.16082859
O     -0.62745339     0.66191678     2.65327802
H      0.30791651     0.58245065     2.89294775
H     -0.47029317     0.60496838     1.63503348
O     -1.65448219    -3.41473468    -5.28815853
H     -1.67290933    -2.98469540    -6.12105362
H     -2.17999698    -2.86716818    -4.63582117
O      1.05658067    -0.21854782    -2.83659765
H      1.13166688    -1.05022154    -3.29380255
H      1.99248189     0.09208459    -2.77427208
O      3.87548724    -2.08135733    -1.59291642
H      3.57802228    -2.82455323    -1.04996238
H      3.47862442    -2.14051101    -2.46950174
O     -0.38906822    -3.86444406     1.59352426
H     -0.84498665    -4.54382473     2.10676451
H     -1.14537668    -3.48437791     1.08538299
O     -4.53818047     1.14023794     1.09467280
H     -5.49083771     1.15305160     1.08586753
H     -4.31724361     0.72469973     1.94063856
O      3.39622841     4.69782609     0.84130562
H      3.72467148     5.14002414     0.01448450
H      2.42700556     4.47763714     0.66193798
O     -1.99813028    -1.85658243     3.21126510
H     -1.43600173    -2.31420475     3.87100530
H     -1.53682208    -1.08609697     2.94120283
O     -0.64591859     2.77266222    -3.72913308
H     -1.34911094     2.78597400    -3.07235690
H     -0.81994522     3.28224700    -4.53690698
O     -2.90836427     2.77390746    -1.56724481
H     -2.78052156     2.07596071    -0.89773543
H     -2.86041624     3.55683467    -1.00664321
O     -2.06220715    -1.14435443    -3.31069778
H     -1.23389203    -0.64844286    -3.22934226
H     -2.50526330    -0.97267701    -2.49780313
72
droplet n=24 rho=0.60 rep=6
O     -3.56140518    -1.16139183    -0.42423954
H     -3.97066620    -0.29578024    -0.40227253
H     -3.33091576    -1.36805401     0.46357673
O      3.80327968     0.96335932    -1.60176934
H      3.53985574     1.19853376    -0.76066130
H      4.21372229     0.02704125    -1.54619072
O     -0.20500845     1.00811576    -0.42487992
H      0.19893770     0.47073449    -1.19872232
H      0.08231285     1.91096086    -0.57738753
O      2.36526792    -4.39641575    -0.41191686
H      2.00955572    -4.81366954    -1.24866967
H      1.64806889    -4.13716115     0.15240232
O     -1.53342058    -4.81415846    -1.74731825
H     -1.75194463    -5.70649949    -2.08720377
H     -2.26570028    -4.24529316    -1.91423949
O     -2.68547357     3.25021668     2.45825246
H     -1.91255838     2.61604249     2.56346021
H     -3.38698580     2.73188902     2.00888423
O      1.33177833     4.06824967    -1.06513785
H      1.43321133     3.68378918    -1.95836600
H      0.62095541     4.69487524    -1.20619052
O      2.10331291    -1.02796293     2.32990919
H      2.24821851    -1.94691768     2.26248504
H      2.92452144    -0.52278670     2.37257598
O      5.05700288     0.38107251     1.86678268
H      5.45746508     1.30032200     1.92968382
H      5.70902823    -0.15877679     1.46399450
O     -2.22675786     5.73872887     0.35877237
H     -2.93937145     6.34715426     0.52452676
H     -2.03495708     5.27754456     1.20649645
O     -5.29921517     0.31982906     4.22854897
H     -6.08475791     0.23397899     4.78662441
H     -4.69016462    -0.32670856     4.62796465
O      0.72795284    -3.53007488    -3.93827556
H      0.04726244    -3.71263022    -4.64038044
H      0.20424052    -3.34671528    -3.14484226
O      0.59071664    -2.85689861     5.20901819
H      1.16773662    -3.57527097     4.85633994
H      1.14205946    -2.22972589     5.64940923
O     -0.62480202     0.73601340     2.90475297
H      0.31056789     0.65654727     3.14442271
H     -0.46764179     0.67906500     1.88650844
O     -1.81009298    -3.71354954    -5.81586698
H     -1.82852011    -3.28351027    -6.64876206
H     -2.33560776    -3.16598304    -5.16352962
O      1.22598175    -0.24596654    -3.12476503
H      1.30106796    -1.07764026    -3.58196993
H      2.16188297     0.06466587    -3.06243946
O      4.27138088    -2.30569087    -1.75386200
H      3.97391592    -3.04888677    -1.21090797
H      3.87451806    -2.36484456    -2.63044732
O     -0.43974395    -4.25135621     1.76463331
H     -0.89566239    -4.93073688     2.27787357
H     -1.19605241    -3.87129005     1.25649204
O     -4.99031310     1.25353993     1.24348979
H     -5.94297035     1.26635360     1.23468452
H     -4.76937625     0.83800173     2.08945555
O      3.74568468     5.19013058     0.90278342
H      4.07412775     5.63232864     0.07596230
H      2.77646183     4.96994163     0.72341578
O     -2.13574504    -2.02088152     3.55808915
H     -1.57361649    -2.47850384     4.21782935
H     -1.67443684    -1.25039606     3.28802688
O     -0.71120569     3.08130758    -4.09894578
H     -1.41439804     3.09461936    -3.44216959
H     -0.88523233     3.59089237    -4.90671968
O     -3.16602356     3.06798717    -1.67314714
H     -3.03818086     2.37004042    -1.00363775
H     -3.11807553     3.85091439    -1.11254554
O     -2.22768002    -1.22507302    -3.60333271
H     -1.39936489    -0.72916145    -3.52197719
H     -2.67073616    -1.05339560    -2.79043806
72
droplet n=24 rho=0.40 rep=6
O     -4.04350251    -1.28033982    -0.42655988
H     -4.45276353    -0.41472822    -0.40459288
H     -3.81301309    -1.48700199     0.46125638
O      4.40267263     1.08628482    -1.77512678
H      4.13924870     1.32145926    -0.93401874
H      4.81311524     0.14996675    -1.71954815
O     -0.15941836     1.18896925    -0.51586449
H      0.24452779     0.65158798    -1.28970689
H      0.12790294     2.09181435    -0.66837210
O      2.69771302    -5.02292580    -0.46948181
H      2.34200081    -5.44017959    -1.30623463
H      1.98051399    -4.76367120     0.09483737
O     -1.75928101    -5.50910410    -2.00944051
H     -1.97780506    -6.40144513    -2.34932604
H     -2.49156071    -4.94023880    -2.17636176
O     -3.02874319     3.68231035     2.81258192
H     -2.25582800     3.04813616     2.91778966
H     -3.73025542     3.16398269     2.36321369
O      1.53702214     4.68600043    -1.25398323
H      1.63845514     4.30153993    -2.14721139
H      0.82619922     5.31262599    -1.39503591
O      2.49620805    -1.17934818     2.68107294
H      2.64111365    -2.09830293     2.61364879
H      3.31741659    -0.67417196     2.72373974
O      5.88150552     0.47185617     2.13572418
H      6.28196772     1.39110566     2.19862532
H      6.53353086    -0.06799313     1.73293600
O     -2.53221213     6.59364281     0.47476705
H     -3.24482572     7.20206819     0.64052144
H     -2.34041135     6.13245849     1.32249113
O     -6.03268841     0.34811941     4.90185472
H     -6.81823114     0.26226934     5.45993017
H     -5.42363786    -0.29841821     5.30127040
O      0.81711222    -4.02355270    -4.48860766
H      0.13642183    -4.20610804    -5.19071254
H      0.29339990    -3.84019310    -3.69517436
O      0.77254412    -3.25739633     5.98225536
H      1.34956411    -3.97576868     5.62957711
H      1.32388694    -2.63022360     6.42264641
O     -0.62060589     0.85328015     3.30274210
H      0.31476401     0.77381403     3.54241184
H     -0.46344567     0.79633175     2.28449757
O     -2.05636561    -4.18645972    -6.65102857
H     -2.07479274    -3.75642045    -7.48392365
H     -2.58188039    -3.63889322    -5.99869121
O      1.49407918    -0.28935993    -3.58082430
H      1.56916539    -1.12103365    -4.03802920
H      2.42998040     0.02127248    -3.51849873
O      4.89792980    -2.66072548    -2.00857759
H      4.60046484    -3.40392138    -1.46562356
H      4.50106698    -2.71987917    -2.88516291
O     -0.51994434    -4.86369085     2.03543380
H     -0.97586278    -5.54307153     2.54867406
H     -1.27625281    -4.48362470     1.52729253
O     -5.70586695     1.43285386     1.47901045
H     -6.65852420     1.44566752     1.47020518
H     -5.48493010     1.01731565     2.32497621
O      4.29874093     5.96926119     1.00007938
H      4.62718400     6.41145925     0.17325826
H      3.32951808     5.74907224     0.82071174
O     -2.35353683    -2.28090444     4.10697960
H     -1.79140828    -2.73852676     4.76671980
H     -1.89222863    -1.51041898     3.83691733
O     -0.81453033     3.56977570    -4.68421849
H     -1.51772268     3.58308748    -4.02744231
H     -0.98855696     4.07936049    -5.49199239
O     -3.57380014     3.53340341    -1.84075021
H     -3.44595743     2.83545666    -1.17124083
H     -3.52585211     4.31633062    -1.28014861
O     -2.48956058    -1.35281982    -4.06646240
H     -1.66124545    -0.85690825    -3.98510688
H     -2.93261672    -1.18114240    -3.25356775
72
droplet n=24 rho=0.20 rep=6
O     -5.03470411    -1.52489920    -0.43133057
H     -5.44396513    -0.65928761    -0.40936356
H     -4.80421469    -1.73156138     0.45648570
O      5.63503633     1.33902205    -2.13155308
H      5.37161239     1.57419649    -1.29044504
H      6.04547894     0.40270398    -2.07597445
O     -0.06568424     1.56080757    -0.70293055
H      0.33826191     1.02342630    -1.47677295
H      0.22163705     2.46365267    -0.85543816
O      3.38122667    -6.31104278    -0.58783649
H      3.02551446    -6.72829657    -1.42458931
H      2.66402763    -6.05178818    -0.02351731
O     -2.22365450    -6.93792600    -2.54836905
H     -2.44217854    -7.83026703    -2.88825457
H     -2.95593419    -6.36906070    -2.71529029
O     -3.73451226     4.57070344     3.54109025
H     -2.96159708     3.93652924     3.64629799
H     -4.43602450     4.05237577     3.09172202
O      1.95900745     5.95610812    -1.64225306
H      2.06044044     5.57164762    -2.53548121
H      1.24818453     6.58273368    -1.78330573
O      3.30400819    -1.49059924     3.40307252
H      3.44891379    -2.40955399     3.33564837
H      4.12521672    -0.98542302     3.44573931
O      7.57669915     0.65850915     2.68867319
H      7.97716135     1.57775865     2.75157433
H      8.22872450     0.11865986     2.28588501
O     -3.16023211     8.35136266     0.71325440
H     -3.87284570     8.95978804     0.87900879
H     -2.96843133     7.89017834     1.56097848
O     -7.54072380     0.40628492     6.28618458
H     -8.32626654     0.32043485     6.84426003
H     -6.93167326    -0.24025270     6.68560026
O      1.00042567    -5.03815278    -5.62010128
H      0.31973528    -5.22070812    -6.32220616
H      0.47671335    -4.85479318    -4.82666798
O      1.14638500    -4.08082749     7.57204619
H      1.72340499    -4.79919984     7.21936794
H      1.69772783    -3.45365477     8.01243724
O     -0.61197858     1.09438290     4.12101557
H      0.32339132     1.01491677     4.36068531
H     -0.45481836     1.03743450     3.10277104
O     -2.56270698    -5.15877235    -8.36813721
H     -2.58113412    -4.72873307    -9.20103229
H     -3.08822176    -4.61120585    -7.71579985
O      2.04529277    -0.37857759    -4.51849113
H      2.12037898    -1.21025131    -4.97569602
H      2.98119399    -0.06794518    -4.45616556
O      6.18612671    -3.39068362    -2.53227785
H      5.88866175    -4.13387952    -1.98932381
H      5.78926389    -3.44983731    -3.40886317
O     -0.68483793    -6.12266293     2.59220494
H     -1.14075637    -6.80204361     3.10544520
H     -1.44114640    -5.74259678     2.08406367
O     -7.17705974     1.80152682     1.96324554
H     -8.12971698     1.81434048     1.95444027
H     -6.95612289     1.38598861     2.80921130
O      5.43583546     7.57116905     1.20012179
H      5.76427853     8.01336711     0.37330066
H      4.46661261     7.35098010     1.02075415
O     -2.80132102    -2.81551667     5.23550915
H     -2.23919247    -3.27313899     5.89524935
H     -2.34001282    -2.04503121     4.96544688
O     -1.02696782     4.57407577    -5.88755071
H     -1.73016017     4.58738755    -5.23077452
H     -1.20099445     5.08366056    -6.69532461
O     -4.41219680     4.49030834    -2.18534542
H     -4.28435409     3.79236159    -1.51583604
H     -4.36424877     5.27323556    -1.62474382
O     -3.02799215    -1.61546975    -5.01866616
H     -2.19967702    -1.11955818    -4.93731064
H     -3.47104829    -1.44379233    -4.20577151
72
droplet-evaporation n=24 rep=6
O     -3.04263617    -1.03339585    -0.42174269
H     -3.45189719    -0.16778425    -0.39977568
H     -2.81214676    -1.24005802     0.46607358
O      3.15829274     0.83108326    -1.41522514
H      2.89486881     1.06625770    -0.57411710
H      3.56873535    -0.10523481    -1.35964651
O     -0.25406644     0.81350531    -0.32697444
H      0.14987972     0.27612404    -1.10081684
H      0.03325486     1.71635041    -0.47948204
O      2.00753475    -3.72224900    -0.34997311
H      1.65182254    -4.13950279    -1.18672592
H      1.29033572    -3.46299440     0.21434607
O     -1.29037964    -4.06635043    -1.46525714
H     -1.50890369    -4.95869147    -1.80514266
H     -2.02265934    -3.49748514    -1.63217839
O     -2.31609249     2.78525497     2.07697025
H     -1.54317730     2.15108078     2.18217799
H     -3.01760472     2.26692730     1.62760202
O      1.11092226     3.40350852    -0.86192758
H      1.21235525     3.01904802    -1.75515573
H      0.40009934     4.03013408    -1.00298025
O      1.68053143    -0.86506226     1.95203349
H      1.82543704    -1.78401701     1.88460934
H      2.50173997    -0.35988604     1.99470028
O      4.16978286     0.28338321     1.57738363
H      4.57024506     1.20263271     1.64028477
H      4.82180820    -0.25646609     1.17459545
O     -1.89806862     4.81878426     0.23395432
H     -2.61068221     5.42720965     0.39970871
H     -1.70626784     4.35759994     1.08167841
O    -10.33592300     0.54480403     8.78532496
H    -11.12146573     0.45895396     9.34340040
H     -9.72687245    -0.10173359     9.18474063
O      0.63201137    -2.99905973    -3.34608138
H     -0.04867902    -3.18161507    -4.04818626
H      0.10829905    -2.81570013    -2.55264808
O      0.39505810    -2.42593627     4.37696323
H      0.97207808    -3.14430862     4.02428498
H      0.94640092    -1.79876355     4.81735428
O     -0.62931732     0.60982653     2.47649003
H      0.30605258     0.53036040     2.71615977
H     -0.47215710     0.55287813     1.45824550
O     -1.54508714    -3.20466654    -4.91717721
H     -1.56351428    -2.77462726    -5.75007229
H     -2.07060192    -2.65710004    -4.26483985
O      0.93749097    -0.19927235    -2.63401473
H      1.01257718    -1.03094607    -3.09121963
H      1.87339219     0.11136007    -2.57168916
O      3.59717230    -1.92364987    -1.47977098
H      3.29970733    -2.66684577    -0.93681694
H      3.20030948    -1.98280356    -2.35635630
O     -0.35344296    -3.59244314     1.47323385
H     -0.80936139    -4.27182382     1.98647411
H     -1.10975142    -3.21237699     0.96509258
O     -4.22032926     1.06058614     0.99005380
H     -5.17298651     1.07339981     0.98124853
H     -3.99939241     0.64504794     1.83601957
O      3.15055914     4.35173389     0.79808646
H      3.47900221     4.79393195    -0.02873467
H      2.18133629     4.13154494     0.61871882
O     -1.90138650    -1.74107946     2.96744629
H     -1.33925795    -2.19870177     3.62718649
H     -1.44007830    -0.97059400     2.69738402
O     -0.60002147     2.55568319    -3.46915316
H     -1.30321382     2.56899497    -2.81237697
H     -0.77404810     3.06526798    -4.27692706
O     -2.72722867     2.56716814    -1.49279502
H     -2.59938597     1.86922140    -0.82328563
H     -2.67928064     3.35009536    -0.93219341
O     -1.94587901    -1.08760892    -3.10497416
H     -1.11756389    -0.59169734    -3.02361864
H     -2.38893515    -0.91593150    -2.29207950
72
droplet n=24 rho=0.80 rep=7
O     -3.17348145    -1.83554957    -0.42878440
H     -3.71452466    -2.23223055     0.23050806
H     -2.92996791    -0.94714807    -0.05796053
O      3.59426233     1.92402280    -1.10846590
H      2.89486983     2.50961148    -1.46491566
H      3.52094304     0.99340891    -1.43016970
O     -0.14492885     0.28041175    -0.06429820
H      0.44374674    -0.07080035    -0.76953974
H     -0.04772947     1.28179182    -0.07346059
O      2.48799936    -3.87094990    -0.25549944
H      2.28546514    -3.35260640     0.48862466
H      1.74639440    -4.04637330    -0.83188834
O     -1.30276952    -3.86148168    -1.62138480
H     -2.14227661    -3.40832277    -1.53907841
H     -0.80423443    -3.35830889    -2.35880588
O     -2.57712969     2.64713615     1.38994353
H     -1.78408513     2.06392565     1.66290359
H     -3.41271444     2.06330088     1.47900745
O      0.38650987     3.23294569    -0.58133274
H      0.28560425     3.09407765    -1.58995277
H      0.11727491     4.13047704    -0.38715511
O      1.89299364    -1.77699514     2.04913219
H      1.75166243    -1.83090468     1.08023284
H      2.73022038    -1.23486835     2.06422139
O      4.49167401    -0.62025814     2.37620800
H      4.82407270     0.21698659     2.75483557
H      4.97583778    -0.83836850     1.51832467
O     -1.47719508     5.17908038     0.33353462
H     -0.88399784     5.59472974     0.93638903
H     -2.13342473     4.66907844     0.75867014
O     -4.57394648    -0.12118400     3.80368941
H     -4.03238417     0.26210731     4.51193072
H     -3.96923164    -0.82713163     3.48787983
O      1.47639111    -2.87366827    -3.40893104
H      0.81279447    -3.21130104    -4.02493446
H      2.19280533    -3.52714716    -3.49485249
O     -0.17747064    -2.72548168     4.13975931
H      0.25030108    -2.77386936     3.29806134
H      0.35090824    -3.20702089     4.76427426
O     -0.25848938     0.71405438     2.56722330
H      0.31766426     0.74122247     3.33520918
H      0.33419975     0.44910018     1.82995204
O     -1.04413715    -3.63514641    -5.18088978
H     -1.33271231    -3.63996842    -6.07059749
H     -1.65277196    -3.12594156    -4.60169896
O      0.77959777     0.00595692    -2.81145782
H      0.99063918    -0.84607441    -3.17928572
H      0.52018819     0.47005154    -3.62169055
O      4.02911731    -1.40290706    -1.20209422
H      3.68883797    -2.22117583    -0.73351728
H      4.50429239    -1.77379837    -1.96760268
O     -0.27379228    -3.21777463     0.93507528
H     -0.93637145    -2.70692655     1.37323855
H     -0.67844408    -3.54816499     0.11567311
O     -5.12404211     1.01836231     1.24570990
H     -5.87470499     1.59972384     1.23226964
H     -5.09360439     0.70165100     2.15762442
O      3.11646430     4.39673626     0.87604578
H      3.30057809     4.06697630     0.00454272
H      2.40307997     3.74107769     1.20082857
O     -2.30326966    -1.38335448     2.57320181
H     -1.72627737    -1.60603116     3.35014882
H     -1.90163501    -0.60669324     2.15485958
O     -0.83618766     3.46238316    -3.44822005
H     -1.69381549     3.29287922    -3.00945676
H     -1.01265980     4.33649536    -3.86019995
O     -3.25647957     3.09340717    -1.67153483
H     -3.03825622     2.44286269    -0.96418160
H     -3.36289485     3.92520314    -1.20280583
O     -2.23933851    -1.24752478    -3.26283548
H     -1.53076772    -0.63920859    -2.99476952
H     -2.79813981    -1.23670830    -2.45354264
72
droplet n=24 rho=0.60 rep=7
O     -3.47523884    -1.99429920    -0.42389433
H     -4.01628205    -2.39098018     0.23539813
H     -3.23172530    -1.10589771    -0.05307046
O      3.95768587     2.11557491    -1.22928876
H      3.25829336     2.70116359    -1.58573852
H      3.88436658     1.18496102    -1.55099255
O     -0.10889464     0.33993308    -0.08124961
H      0.47978094    -0.01127901    -0.78649115
H     -0.01169527     1.34131315    -0.09041200
O      2.73433497    -4.23953902    -0.26210026
H      2.53180075    -3.72119552     0.48202384
H      1.99273001    -4.41496242    -0.83848917
O     -1.41771132    -4.20853949    -1.79305617
H     -2.25721841    -3.75538058    -1.71074978
H     -0.91917623    -3.70536670    -2.53047724
O     -2.81031454     2.88388742     1.55546196
H     -2.01726998     2.30067692     1.82842202
H     -3.64589930     2.30005215     1.64452588
O      0.44060270     3.59325693    -0.65367579
H      0.33969708     3.45438889    -1.66229582
H      0.17136774     4.49078827    -0.45949816
O      2.13446545    -1.92996924     2.23685005
H      1.99313424    -1.98387879     1.26795070
H      2.97169219    -1.38784246     2.25193925
O      4.99873136    -0.65242349     2.61276366
H      5.33113005     0.18482124     2.99139123
H      5.48289513    -0.87053386     1.75488033
O     -1.60036732     5.70663879     0.41507498
H     -1.00717008     6.12228814     1.01792939
H     -2.25659697     5.19663684     0.84021050
O     -4.96821399    -0.13471602     4.21315316
H     -4.42665167     0.24857529     4.92139447
H     -4.36349914    -0.84066365     3.89734358
O      1.65436139    -3.18664195    -3.76207574
H      0.99076475    -3.52427472    -4.37807916
H      2.37077562    -3.84012084    -3.84799719
O     -0.13564445    -3.00806992     4.56259491
H      0.29212726    -3.05645760     3.72089695
H      0.39273442    -3.48960913     5.18710986
O     -0.21768184     0.78742995     2.84011142
H      0.35847181     0.81459804     3.60809730
H      0.37500729     0.52247574     2.10284016
O     -1.15170994    -3.97458703    -5.69923794
H     -1.44028510    -3.97940904    -6.58894565
H     -1.76034475    -3.46538218    -5.12004711
O      0.88404657     0.00303067    -3.12044452
H      1.09508797    -0.84900066    -3.48827242
H      0.62463698     0.46712529    -3.93067725
O      4.46675364    -1.57450380    -1.31955102
H      4.12647430    -2.39277257    -0.85097408
H      4.94192873    -1.94539511    -2.08505949
O     -0.30953948    -3.52607681     1.02988008
H     -0.97211865    -3.01522873     1.46804335
H     -0.71419128    -3.85646718     0.21047791
O     -5.63628900     1.13921963     1.41470886
H     -6.38695188     1.72058116     1.40126860
H     -5.60585129     0.82250832     2.32662338
O      3.43996793     4.81566465     0.95935823
H      3.62408172     4.48590469     0.08785516
H      2.72658360     4.16000608     1.28414101
O     -2.47463500    -1.49450531     2.85769151
H     -1.89764271    -1.71718199     3.63463852
H     -2.07300036    -0.71784407     2.43934927
O     -0.92742422     3.84397212    -3.78087257
H     -1.78505205     3.67446818    -3.34210928
H     -1.10389637     4.71808432    -4.19285247
O     -3.55285784     3.42030420    -1.78682138
H     -3.33463449     2.76975972    -1.07946816
H     -3.65927312     4.25210017    -1.31809238
O     -2.43207574    -1.34281982    -3.54158630
H     -1.72350495    -0.73450363    -3.27352034
H     -2.99087704    -1.33200334    -2.73229345
72
droplet n=24 rho=0.40 rep=7
O     -3.95280592    -2.24553944    -0.41615522
H     -4.49384913    -2.64222042     0.24313724
H     -3.70929238    -1.35713795    -0.04533135
O      4.53284698     2.41872898    -1.42050536
H      3.83345448     3.00431766    -1.77695511
H      4.45952769     1.48811509    -1.74220915
O     -0.05186622     0.43413270    -0.10807724
H      0.53680937     0.08292061    -0.81331878
H      0.04533316     1.43551277    -0.11723963
O      3.12419046    -4.82287529    -0.27254685
H      2.92165624    -4.30453178     0.47157724
H      2.38258550    -4.99829868    -0.84893576
O     -1.59962044    -4.75779988    -2.06474658
H     -2.43912752    -4.30464097    -1.98244019
H     -1.10108535    -4.25462709    -2.80216766
O     -3.17935740     3.25857457     1.81741462
H     -2.38631284     2.67536407     2.09037469
H     -4.01494216     2.67473929     1.90647855
O      0.52621105     4.16349245    -0.76816730
H      0.42530543     4.02462441    -1.77678733
H      0.25697609     5.06102379    -0.57398967
O      2.51662341    -2.17206901     2.53393596
H      2.37529219    -2.22597855     1.56503661
H      3.35385014    -1.62994222     2.54902517
O      5.80121013    -0.70332901     2.98714122
H      6.13360882     0.13391573     3.36576879
H      6.28537390    -0.92143937     2.12925789
O     -1.79530209     6.54156291     0.54412233
H     -1.20210484     6.95721227     1.14697674
H     -2.45153174     6.03156097     0.96925785
O     -5.59218936    -0.15613206     4.86117840
H     -5.05062705     0.22715924     5.56941972
H     -4.98747452    -0.86207970     4.54536883
O      1.93602060    -3.68196015    -4.32096937
H      1.27242397    -4.01959292    -4.93697278
H      2.65243483    -4.33543903    -4.40689082
O     -0.06944953    -3.45529953     5.23178271
H      0.35832219    -3.50368721     4.39008475
H      0.45892934    -3.93683874     5.85629766
O     -0.15309903     0.90355554     3.27198943
H      0.42305462     0.93072363     4.03997531
H      0.43959010     0.63860133     2.53471817
O     -1.32195672    -4.51179232    -6.51958575
H     -1.61053188    -4.51661432    -7.40929347
H     -1.93059153    -4.00258746    -5.94039493
O      1.04934925    -0.00160047    -3.60945285
H      1.26039065    -0.85363180    -3.97728075
H      0.78993966     0.46249415    -4.41968558
O      5.15936536    -1.84607612    -1.50544043
H      4.81908602    -2.66434489    -1.03686349
H      5.63454045    -2.21696743    -2.27094889
O     -0.36611369    -4.01400181     1.17991999
H     -1.02869286    -3.50315373     1.61808326
H     -0.77076549    -4.34439217     0.36051782
O     -6.44698084     1.33049076     1.68216989
H     -7.19764371     1.91185228     1.66872962
H     -6.41654312     1.01377945     2.59408440
O      3.95195103     5.47866881     1.09121012
H      4.13606481     5.14890886     0.21970705
H      3.23856669     4.82301025     1.41599290
O     -2.74584111    -1.67041476     3.30793040
H     -2.16884882    -1.89309143     4.08487741
H     -2.34420647    -0.89375351     2.88958817
O     -1.07181698     4.44788219    -4.30733487
H     -1.92944481     4.27837825    -3.86857158
H     -1.24828912     5.32199439    -4.71931477
O     -4.02191183     3.93765776    -1.96927611
H     -3.80368848     3.28711328    -1.26192289
H     -4.12832711     4.76945373    -1.50054711
O     -2.73710541    -1.49363560    -3.98274273
H     -2.02853462    -0.88531941    -3.71467677
H     -3.29590671    -1.48281912    -3.17344989
72
droplet n=24 rho=0.20 rep=7
O     -4.93469323    -2.76209431    -0.40024345
H     -5.47573643    -3.15877530     0.25904901
H     -4.69117968    -1.87369282    -0.02941958
O      5.71538955     3.04201971    -1.81365043
H      5.01599704     3.62760840    -2.17010019
H      5.64207025     2.11140582    -2.13535422
O      0.06538534     0.62780897    -0.16323536
H      0.65406093     0.27659687    -0.86847690
H      0.16258472     1.62918904    -0.17239775
O      3.92574101    -6.02222612    -0.29402525
H      3.72320679    -5.50388261     0.45009885
H      3.18413605    -6.19764951    -0.87041415
O     -1.97362916    -5.88709005    -2.62334742
H     -2.81313624    -5.43393114    -2.54104103
H     -1.47509407    -5.38391726    -3.36076849
O     -3.93811678     4.02893869     2.35599445
H     -3.14507222     3.44572819     2.62895452
H     -4.77370153     3.44510342     2.44505838
O      0.70222351     5.33590789    -1.00356410
H      0.60131788     5.19703985    -2.01218412
H      0.43298855     6.23343924    -0.80938646
O      3.30234767    -2.66983089     3.14475044
H      3.16101646    -2.72374044     2.17585109
H      4.13957441    -2.12770411     3.15983965
O      7.45112225    -0.80799174     3.75686884
H      7.78352094     0.02925299     4.13549641
H      7.93528602    -1.02610210     2.89898552
O     -2.19609181     8.25818333     0.80944621
H     -1.60289456     8.67383269     1.41230063
H     -2.85232145     7.74818139     1.23458173
O     -6.87509500    -0.20016387     6.19353105
H     -6.33353269     0.18312744     6.90177236
H     -6.27038016    -0.90611150     5.87772148
O      2.51511748    -4.70034410    -5.47006565
H      1.85152084    -5.03797686    -6.08606906
H      3.23153171    -5.35382298    -5.55598710
O      0.06664853    -4.37481241     6.60764598
H      0.49442025    -4.42320008     5.76594802
H      0.59502741    -4.85635161     7.23216093
O     -0.02031551     1.14231203     4.15993912
H      0.55583814     1.16948012     4.92792499
H      0.57237362     0.87735782     3.42266785
O     -1.67198745    -5.61629695    -8.20623699
H     -1.96056261    -5.62111895    -9.09594470
H     -2.28062226    -5.10709209    -7.62704616
O      1.38921480    -0.01112218    -4.61486358
H      1.60025621    -0.86315351    -4.98269148
H      1.12980522     0.45297244    -5.42509630
O      6.58338867    -2.40443415    -1.88763271
H      6.24310933    -3.22270292    -1.41905576
H      7.05856376    -2.77532546    -2.65314117
O     -0.48243137    -5.01718519     1.48840499
H     -1.14501054    -4.50633711     1.92656826
H     -0.88708317    -5.34757556     0.66900282
O     -8.11377919     1.72374796     2.23207500
H     -8.86444207     2.30510949     2.21863474
H     -8.08334147     1.40703665     3.14398952
O      5.00459834     6.84181842     1.36230019
H      5.18871213     6.51205847     0.49079712
H      4.29121400     6.18615985     1.68708297
O     -3.30344619    -2.03208804     4.23363042
H     -2.72645391    -2.25476472     5.01057743
H     -2.90181155    -1.25542679     3.81528818
O     -1.36869132     5.68953316    -5.38975172
H     -2.22631915     5.52002922    -4.95098843
H     -1.54516347     6.56364536    -5.80173162
O     -4.98629605     5.00134686    -2.34440662
H     -4.76807270     4.35080237    -1.63705339
H     -5.09271133     5.83314282    -1.87567762
O     -3.36425240    -1.80371580    -4.88976902
H     -2.65568161    -1.19539961    -4.62170307
H     -3.92305370    -1.79289932    -4.08047618
72
droplet-evaporation n=24 rep=7
O     -2.96134470    -1.72394789    -0.43222213
H     -3.50238790    -2.12062887     0.22707033
H     -2.71783116    -0.83554639    -0.06139827
O      3.33877401     1.78936084    -1.02352691
H      2.63938151     2.37494952    -1.37997667
H      3.26545472     0.85874695    -1.34523070
O     -0.17026105     0.23856799    -0.05238129
H      0.41841454    -0.11264411    -0.75762283
H     -0.07306167     1.23994806    -0.06154368
O      2.31482437    -3.61183016    -0.25085903
H      2.11229014    -3.09348665     0.49326507
H      1.57321941    -3.78725355    -0.82724793
O     -1.22196494    -3.61749854    -1.50069909
H     -2.06147202    -3.16433963    -1.41839270
H     -0.72342985    -3.11432575    -2.23812017
O     -2.41319972     2.48069898     1.27358335
H     -1.62015516     1.89748848     1.54654342
H     -3.24878448     1.89686371     1.36264728
O      0.34848238     2.97964534    -0.53047526
H      0.24757676     2.84077730    -1.53909529
H      0.07924742     3.87717668    -0.33629763
O      1.72323792    -1.66945368     1.91716572
H      1.58190670    -1.72336323     0.94826637
H      2.56046465    -1.12732690     1.93225492
O      4.13521050    -0.59764576     2.20990834
H      4.46760918     0.23959898     2.58853591
H      4.61937426    -0.81575612     1.35202502
O     -1.39060446     4.80820454     0.27621140
H     -0.79740722     5.22385390     0.87906581
H     -2.04683411     4.29820260     0.70134692
O     -4.29677472    -0.11167092     3.51583462
H     -3.75521240     0.27162038     4.22407593
H     -3.69205987    -0.81761856     3.20002504
O      1.35127723    -2.65364642    -3.16066879
H      0.68768059    -2.99127919    -3.77667221
H      2.06769145    -3.30712530    -3.24659024
O     -0.20687462    -2.52682093     3.84250405
H      0.22089710    -2.57520860     3.00080608
H      0.32150425    -3.00836013     4.46701900
O     -0.28717726     0.66247104     2.37538177
H      0.28897638     0.68963913     3.14336765
H      0.30551187     0.39751684     1.63811051
O     -2.33192584    -7.49064140   -10.97577880
H     -2.62050100    -7.49546341   -11.86548652
H     -2.94056065    -6.98143655   -10.39658798
O      0.70616982     0.00801408    -2.59423884
H      0.91721123    -0.84401725    -2.96206674
H      0.44676024     0.47210870    -3.40447156
O      3.72145707    -1.28227380    -1.11952158
H      3.38117773    -2.10054258    -0.65094463
H      4.19663216    -1.65316512    -1.88503004
O     -0.24866185    -3.00103686     0.86842710
H     -0.91124102    -2.49018877     1.30659037
H     -0.65331364    -3.33142722     0.04902493
O     -4.76393033     0.93339909     1.12690290
H     -5.51459320     1.51476062     1.11346264
H     -4.73349261     0.61668778     2.03881742
O      2.88903985     4.10222778     0.81747677
H      3.07315364     3.77246783    -0.05402629
H      2.17565551     3.44656922     1.14225956
O     -2.18279908    -1.30521497     2.37320432
H     -1.60580679    -1.52789165     3.15015133
H     -1.78116444    -0.52855373     1.95486209
O     -0.77204796     3.19412446    -3.21436389
H     -1.62967579     3.02462052    -2.77560060
H     -0.94852010     4.06823666    -3.62634379
O     -3.04812435     2.86359714    -1.59048788
H     -2.82990101     2.21305266    -0.88313466
H     -3.15453964     3.69539311    -1.12175888
O     -2.10384340    -1.18053195    -3.06687245
H     -1.39527261    -0.57221576    -2.79880649
H     -2.66264470    -1.16971547    -2.25757960
