30
water n=10 pent_prism minimum frame=0
O      2.34779623     0.00000000     0.00000000
H      1.78516819     0.77439107     0.00000000
H      2.48885717    -0.19415373     0.92662721
O      0.72550893     2.23288690     0.00000000
H      0.72550893     2.23288690     0.95720000
H      1.65213614     2.23288690    -0.23998721
O     -1.89940705     1.38000000     0.00000000
H     -1.89940705     0.42280000     0.00000000
H     -1.89940705     1.61998721     0.92662721
O     -1.89940705    -1.38000000     0.00000000
H     -1.89940705    -1.38000000     0.95720000
H     -0.97277984    -1.38000000    -0.23998721
O      0.72550893    -2.23288690     0.00000000
H      1.28813698    -1.45849584     0.00000000
H      0.58444799    -2.42704063     0.92662721
O      2.34779623     0.00000000     2.72000000
H      2.34779623     0.00000000     1.76280000
H      3.27442344     0.00000000     2.95998721
O      0.72550893     2.23288690     2.72000000
H     -0.18484236     1.93709584     2.72000000
H      0.95375033     2.30704703     1.79337279
O     -1.89940705     1.38000000     2.72000000
H     -1.89940705     1.38000000     1.76280000
H     -0.97277984     1.38000000     2.95998721
O     -1.89940705    -1.38000000     2.72000000
H     -0.98905575    -1.67579107     2.72000000
H     -2.12764845    -1.30583987     1.79337279
O      0.72550893    -2.23288690     2.72000000
H      0.72550893    -2.23288690     1.76280000
H      1.65213614    -2.23288690     2.95998721
