36
water n=12 hex_prism minimum frame=0
O      2.76000000     0.00000000     0.00000000
H      2.28140000     0.82895952     0.00000000
H      2.87999360    -0.20783502     0.92662721
O      1.38000000     2.39023011     0.00000000
H      1.38000000     2.39023011     0.95720000
H      2.30662721     2.39023011    -0.23998721
O     -1.38000000     2.39023011     0.00000000
H     -1.85860000     1.56127060     0.00000000
H     -1.26000640     2.59806513     0.92662721
O     -2.76000000     0.00000000     0.00000000
H     -2.76000000     0.00000000     0.95720000
H     -1.83337279     0.00000000    -0.23998721
O     -1.38000000    -2.39023011     0.00000000
H     -0.42280000    -2.39023011     0.00000000
H     -1.61998721    -2.39023011     0.92662721
O      1.38000000    -2.39023011     0.00000000
H      1.38000000    -2.39023011     0.95720000
H      2.30662721    -2.39023011    -0.23998721
O      2.76000000     0.00000000     2.72000000
H      2.76000000     0.00000000     1.76280000
H      3.68662721     0.00000000     2.95998721
O      1.38000000     2.39023011     2.72000000
H      0.42280000     2.39023011     2.72000000
H      1.61998721     2.39023011     1.79337279
O     -1.38000000     2.39023011     2.72000000
H     -1.38000000     2.39023011     1.76280000
H     -0.45337279     2.39023011     2.95998721
O     -2.76000000     0.00000000     2.72000000
H     -2.28140000    -0.82895952     2.72000000
H     -2.87999360     0.20783502     1.79337279
O     -1.38000000    -2.39023011     2.72000000
H     -1.38000000    -2.39023011     1.76280000
H     -0.45337279    -2.39023011     2.95998721
O      1.38000000    -2.39023011     2.72000000
H      1.85860000    -1.56127060     2.72000000
H      1.26000640    -2.59806513     1.79337279
