12
water n=4 cyclic minimum frame=0
O      1.95161472     0.00000000     0.15000000
H      1.27576949     0.67584523     0.09805492
H      2.08550369    -0.13388897     1.08828531
O      0.00000000     1.95161472    -0.15000000
H     -0.67584523     1.27576949    -0.09805492
H      0.13388897     2.08550369    -1.08828531
O     -1.95161472     0.00000000     0.15000000
H     -1.27576949    -0.67584523     0.09805492
H     -2.08550369     0.13388897     1.08828531
O     -0.00000000    -1.95161472    -0.15000000
H      0.67584523    -1.27576949    -0.09805492
H     -0.13388897    -2.08550369    -1.08828531
