15
water n=5 cyclic minimum frame=0
O      2.34779623     0.00000000     0.15000000
H      1.78599726     0.77324994     0.09805492
H      2.45909196    -0.15318543     1.08828531
O      0.72550893     2.23288690    -0.15000000
H     -0.18350089     1.93753171    -0.09805492
H      0.90558921     2.29139853    -1.08828531
O     -1.89940705     1.38000000     0.15000000
H     -1.89940705     0.42421051     0.09805492
H     -1.89940705     1.56934760     1.08828531
O     -1.89940705    -1.38000000    -0.15000000
H     -0.99039723    -1.67535520    -0.09805492
H     -2.07948732    -1.32148837    -1.08828531
O      0.72550893    -2.23288690     0.15000000
H      1.28730790    -1.45963696     0.09805492
H      0.61421321    -2.38607233     1.08828531
