18
water n=6 book minimum frame=0
O      0.00000000     0.00000000     0.00000000
H      0.95720000     0.00000000     0.00000000
H     -0.23998721     0.00000000     0.92662721
O      2.76000000     0.00000000     0.00000000
H      3.23980101     0.81566171     0.14394030
H      2.56905564    -0.32460541     0.88000194
O      4.14000000     2.34600000     0.41400000
H      3.66019899     3.16166171     0.27005970
H      4.18964508     2.26160337     1.36617877
O      1.38000000     2.34600000     0.41400000
H      0.90019899     1.53033829     0.27005970
H      1.42964508     2.43039663     1.36617877
O      2.76000000     4.69200000     0.00000000
H      1.80280000     4.69200000     0.00000000
H      2.99998721     4.69200000     0.92662721
O      0.00000000     4.69200000     0.00000000
H      0.47980101     3.87633829     0.14394030
H     -0.19094436     5.01660541     0.88000194
