18
water n=6 cyclic minimum frame=0
O      2.76000000     0.00000000     0.15000000
H      2.28210526     0.82773798     0.09805492
H      2.85467380    -0.16397983     1.08828531
O      1.38000000     2.39023011    -0.15000000
H      0.42421051     2.39023011    -0.09805492
H      1.56934760     2.39023011    -1.08828531
O     -1.38000000     2.39023011     0.15000000
H     -1.85789474     1.56249214     0.09805492
H     -1.28532620     2.55420995     1.08828531
O     -2.76000000     0.00000000    -0.15000000
H     -2.28210526    -0.82773798    -0.09805492
H     -2.85467380     0.16397983    -1.08828531
O     -1.38000000    -2.39023011     0.15000000
H     -0.42421051    -2.39023011     0.09805492
H     -1.56934760    -2.39023011     1.08828531
O      1.38000000    -2.39023011    -0.15000000
H      1.85789474    -1.56249214    -0.09805492
H      1.28532620    -2.55420995    -1.08828531
