18
water n=6 cage minimum frame=0
O      2.34600000     2.34600000     2.34600000
H      1.72291587     1.72291587     2.71985048
H      3.20564450     1.98499327     2.56260404
O      2.34600000    -2.34600000    -2.34600000
H      1.72291587    -1.72291587    -2.71985048
H      3.20564450    -1.98499327    -2.56260404
O     -2.34600000     2.34600000    -2.34600000
H     -2.02259209     2.02259209    -1.50513944
H     -1.55494888     2.53947273    -2.84902910
O     -2.34600000    -2.34600000     2.34600000
H     -2.02259209    -2.02259209     1.50513944
H     -1.55494888    -2.53947273     2.84902910
O      0.00000000     0.00000000     3.75360000
H      0.62308413     0.62308413     3.37974952
H      0.54720777    -0.67344347     4.15766608
O      0.00000000     0.00000000    -3.75360000
H      0.62308413    -0.62308413    -3.37974952
H      0.54720777     0.67344347    -4.15766608
