18
water n=6 prism minimum frame=0
O      1.59348674     0.00000000     0.00000000
H      0.76452723     0.47860000     0.00000000
H      1.80132176    -0.11999360     0.92662721
O     -0.79674337     1.38000000     0.00000000
H     -0.79674337     1.38000000     0.95720000
H      0.12988384     1.38000000    -0.23998721
O     -0.79674337    -1.38000000     0.00000000
H      0.03221615    -0.90140000     0.00000000
H     -1.00457839    -1.49999360     0.92662721
O      1.59348674     0.00000000     2.70000000
H      1.59348674     0.00000000     1.74280000
H      2.52011395     0.00000000     2.93998721
O     -0.79674337     1.38000000     2.70000000
H     -0.79674337     0.42280000     2.70000000
H     -0.79674337     1.61998721     1.77337279
O     -0.79674337    -1.38000000     2.70000000
H     -0.79674337    -1.38000000     1.74280000
H      0.12988384    -1.38000000     2.93998721
