24
water n=8 cube minimum frame=0
O      0.00000000     0.00000000     0.00000000
H      0.95720000     0.00000000     0.00000000
H     -0.23998721    -0.65522438    -0.65522438
O      2.75000000     0.00000000     0.00000000
H      2.75000000     0.95720000     0.00000000
H      3.40522438    -0.23998721    -0.65522438
O      2.75000000     2.75000000     0.00000000
H      1.79280000     2.75000000     0.00000000
H      2.98998721     3.40522438    -0.65522438
O      0.00000000     2.75000000     0.00000000
H      0.00000000     1.79280000     0.00000000
H     -0.65522438     2.98998721    -0.65522438
O      0.00000000     0.00000000     2.75000000
H      0.00000000     0.95720000     2.75000000
H     -0.65522438    -0.23998721     3.40522438
O      2.75000000     0.00000000     2.75000000
H      1.79280000     0.00000000     2.75000000
H      2.98998721    -0.65522438     3.40522438
O      2.75000000     2.75000000     2.75000000
H      2.75000000     1.79280000     2.75000000
H      3.40522438     2.98998721     3.40522438
O      0.00000000     2.75000000     2.75000000
H      0.95720000     2.75000000     2.75000000
H     -0.23998721     3.40522438     3.40522438
