9
Properties=species:S:1:pos:R:3 pbc="F F F"
C     -0.23614507    -0.48406480    -0.03915515
C     -0.95046644     0.77093643     0.52302617
O      1.07489421    -0.29931330    -0.48710465
H     -0.31705972    -1.26705327     0.74966478
H     -0.92669221    -0.84096080    -0.91455045
H     -1.70204168     0.47567217     1.23429522
H     -0.21176082     1.43436343     1.00113665
H     -1.35766460     1.34195357    -0.30271140
H      1.59180633     0.18724692     0.19830645
9
Properties=species:S:1:pos:R:3 pbc="F F F"
C     -0.39622603     0.29966510    -0.26796001
C     -0.50038139     0.01449007     1.21902799
O      0.78864562    -0.29180021    -0.91446818
H     -1.15752329    -0.26587890    -0.81800682
H     -0.38686354     1.40995106    -0.49727795
H     -1.29066693     0.61877030     1.67971268
H     -0.80745987    -1.04057132     1.20118673
H      0.38660564     0.21823409     1.83567868
H      1.42051002    -0.05365409    -0.21861366
9
Properties=species:S:1:pos:R:3 pbc="F F F"
C     -0.34465478     0.13113282     0.28825483
C      0.11072826     1.27039547    -0.66676676
O      0.23974657    -1.25861158     0.37324155
H     -0.05844532     0.41496646     1.41851336
H     -1.40302831    -0.06783420     0.22858188
H      1.15732839     1.63590488    -0.40921920
H      0.05872233     1.04110730    -1.72606411
H     -0.60762968     2.16249936    -0.64154600
H     -0.16603296    -1.91047446    -0.28448465
9
Properties=species:S:1:pos:R:3 pbc="F F F"
C     -0.08968956     0.32364899     0.41129418
C      0.70613277     0.86319109    -0.72878648
O     -0.58101163    -1.07008034     0.33477152
H      0.32893501     0.27394467     1.42690519
H     -0.99993461     0.96060102     0.68559618
H      0.29512664     0.51013586    -1.73238151
H      0.68029510     1.91678955    -0.74925211
H      1.80530818     0.39637688    -0.63931052
H     -0.23369994    -1.21606050    -0.52224223
9
Properties=species:S:1:pos:R:3 pbc="F F F"
C     -0.22590821    -0.48381197     0.08506863
C     -0.96742720     0.79487346     0.48318323
O      1.06032870    -0.28640986    -0.56922910
H     -0.06282576    -1.19014868     0.98315592
H     -0.80785025    -0.95778176    -0.77900908
H     -1.98431689     0.48624369     0.76009908
H     -0.55927553     1.17264322     1.48992849
H     -0.92500107     1.58947601    -0.29457464
H      1.72718302    -0.26227976     0.10464354
9
Properties=species:S:1:pos:R:3 pbc="F F F"
C      0.12088588    -0.37406141    -0.28018699
C     -1.22130616     0.10917319    -0.35379212
O      1.02537037     0.24890071     0.54044350
H      0.24261463    -1.39651410    -0.15200743
H      0.52806188    -0.26020531    -1.24588916
H     -1.20996920     1.18784874    -0.39112902
H     -1.68466632    -0.26280543    -1.24594860
H     -1.82212694    -0.22212348     0.46607585
H      0.78172117     0.15783836     1.54479095
9
Properties=species:S:1:pos:R:3 pbc="F F F"
C     -0.22144436     0.35996472     0.54201639
C      0.30714936     0.94810280    -0.94019914
O     -0.07408548    -1.15336098     0.32069599
H      0.29902305     0.56658113     1.50095787
H     -1.34240056     0.63290039     0.64554507
H      0.88899894     1.87728572    -0.90299124
H      0.99736653     0.02571676    -1.23257182
H     -0.52049424     1.26204499    -1.59156597
H     -0.16876513    -1.64535421     1.23488136
9
Properties=species:S:1:pos:R:3 pbc="F F F"
C     -0.18297150    -0.55472967     0.00174260
C     -0.95206752     0.69012805     0.57706948
O      1.04156710    -0.08975590    -0.52024122
H      0.00989690    -1.40079273     0.61049207
H     -0.81047879    -0.97541277    -0.76441809
H     -1.84166049     0.32491317     1.35216149
H     -0.29789672     1.48803590     1.03025695
H     -1.56641033     1.30139159    -0.14369360
H      1.49760787    -0.92832599    -0.72399458
9
Properties=species:S:1:pos:R:3 pbc="F F F"
C      0.34591059     0.32481943     0.35584958
C     -1.11629360     0.01117093     0.60141086
O      0.77371095    -0.34691359    -0.83492758
H      0.35506270     1.42768426     0.25112467
H      1.02599711     0.15081666     1.22998147
H     -1.59978327     0.67961095     1.35488599
H     -1.70507852     0.32179181    -0.27084744
H     -1.37665578    -1.09215850     0.83509629
H      0.19802233     0.01375074    -1.55392842
9
Properties=species:S:1:pos:R:3 pbc="F F F"
C      0.54015307     0.17856406     0.06845232
C     -0.32728933     1.03365372    -0.77083483
O     -0.12866523    -1.12192875     0.60401198
H      1.24882593    -0.35950419    -0.44588025
H      0.89508654     0.72826666     0.96049187
H     -1.28219408     0.53741554    -1.10863492
H     -0.76343808     1.86929784    -0.19215677
H      0.29271786     1.46365765    -1.58787431
H     -0.88613976    -0.87674018     1.15600198
6
water_dimer water clusters train frame=0
O      1.30817117    -0.00998523     0.03206607
H      0.41467301     0.00630795    -0.06211485
H      1.60977405    -0.01640678     0.96545118
O     -1.37336562    -0.00069095    -0.03050069
H     -0.45775638    -0.00035202     0.05484722
H     -1.69926164    -0.11722610    -0.84323497
6
water_dimer water clusters train frame=1
O      1.48152616     0.04182410     0.02431645
H      0.39858007    -0.02115340    -0.07379352
H      1.65956312    -0.01144723     0.80636437
O     -1.41084873    -0.03320125    -0.03950934
H     -0.29897276     0.06997533    -0.19826052
H     -1.58743357     0.06908897    -0.84137466
6
water_dimer water clusters train frame=2
O      1.41832623     0.10190642    -0.09546428
H      0.38806004     0.08056017     0.08523449
H      1.68067385    -0.03510736     0.84024400
O     -1.22760597    -0.05624657    -0.03016454
H     -0.28921204     0.00820524    -0.05184847
H     -1.54670866    -0.01596454    -0.81446961
6
water_dimer water clusters train frame=3
O      1.37546501    -0.03414462     0.10483321
H      0.47623993     0.00690240    -0.00437789
H      1.56398842    -0.02389305     0.87342603
O     -1.34286507     0.05173135    -0.01334635
H     -0.44330312     0.01662291    -0.00020383
H     -1.59711719     0.02125228    -0.90895388
6
water_dimer water clusters train frame=4
O      1.42069246    -0.06235370     0.04564951
H      0.29584289     0.00712139    -0.01773067
H      1.64365261    -0.01187904     0.94168809
O     -1.49366781    -0.03351170    -0.05098273
H     -0.40024640     0.01149468    -0.02919895
H     -1.65374415    -0.04614050    -0.93611668
6
water_dimer water clusters train frame=5
O      1.41464058     0.05725988    -0.01453206
H      0.33154262    -0.07218029     0.05762669
H      1.52914408    -0.03205186     0.72965668
O     -1.30916866     0.00062803    -0.05770162
H     -0.44431718     0.04706679    -0.01261230
H     -1.60551578    -0.00357864    -1.03020001
6
water_dimer water clusters train frame=6
O      1.30514834     0.03952310    -0.02496948
H      0.46907913     0.04607900    -0.02176909
H      1.59092574    -0.02497136     0.99368917
O     -1.38080161    -0.01233303     0.03540723
H     -0.46339228    -0.02630379    -0.02584645
H     -1.62379941    -0.05548267    -0.95520634
6
water_dimer water clusters train frame=7
O      1.38616495    -0.06525573    -0.06696087
H      0.44664265    -0.06634627    -0.01537964
H      1.66677056     0.00356366     1.03856503
O     -1.38859235    -0.09809441     0.02039601
H     -0.41139486     0.04591291    -0.09244447
H     -1.63026926     0.06676814    -0.91494656
6
water_dimer water clusters train frame=8
O      1.37099819     0.07334986    -0.14249984
H      0.38262798     0.08061182    -0.01260227
H      1.75308036     0.00623924     0.85498543
O     -1.26594454     0.01013083    -0.01827166
H     -0.43066997    -0.06503118    -0.03139846
H     -1.55501299    -0.05800244    -0.94089212
6
water_dimer water clusters train frame=9
O      1.34737075     0.00113456     0.02150250
H      0.44420388    -0.01450229    -0.03129675
H      1.63170904     0.03631396     0.95278317
O     -1.26754293     0.00531885    -0.02231599
H     -0.43443509     0.04119057    -0.03905266
H     -1.62694851    -0.06686612    -0.93649701
6
water_dimer water clusters train frame=10
O      1.42350729     0.06328857     0.03799904
H      0.48656532    -0.04426943     0.09870720
H      1.73023556    -0.10222107     0.85727711
O     -1.33422270     0.04629551     0.08252147
H     -0.41170843    -0.06234341    -0.04400821
H     -1.52898827     0.00023597    -1.03415884
6
water_dimer water clusters train frame=11
O      1.36564956     0.05788564    -0.00021094
H      0.47488947     0.04084538     0.00180102
H      1.53517998     0.00388544     0.98661800
O     -1.42983162     0.08874832     0.16223688
H     -0.35739928     0.03220079     0.00601896
H     -1.69017015     0.12859911    -0.95626041
6
water_dimer water clusters train frame=12
O      1.35140828     0.07452140     0.04236237
H      0.40012083     0.01162917     0.01471336
H      1.65463348    -0.07618489     0.88745582
O     -1.43676954     0.00797228    -0.02832981
H     -0.40438099     0.07830280     0.02277298
H     -1.65624971    -0.00205463    -0.91055716
6
water_dimer water clusters train frame=13
O      1.27161446     0.07422419     0.01509606
H      0.47285094     0.07593920     0.01706713
H      1.70359779     0.03315505     0.86376578
O     -1.37685015    -0.00298118     0.05085045
H     -0.31118256    -0.08881958     0.00051643
H     -1.66150980     0.01483951    -0.87163435
6
water_dimer water clusters train frame=14
O      1.51605173    -0.13462235     0.01421664
H      0.53524136    -0.06420854     0.06049610
H      1.66132866     0.12106625     0.96453674
O     -1.56563597    -0.08595049     0.00856881
H     -0.44854167    -0.03374846     0.09877615
H     -1.71455737     0.01130693    -0.84631475
6
water_dimer water clusters train frame=15
O      1.30212479     0.00685233    -0.01041148
H      0.39511833     0.08791328    -0.02786976
H      1.64919228    -0.03631263     0.88634427
O     -1.37315302     0.04539587    -0.00639413
H     -0.39811509    -0.00641901     0.04440123
H     -1.61143012     0.00974060    -0.89740590
6
water_dimer water clusters train frame=16
O      1.41014088     0.00693670    -0.02394498
H      0.43208838    -0.02373339     0.07913676
H      1.61674830     0.05172550     0.89275633
O     -1.34755501    -0.09578910    -0.04029558
H     -0.34981371     0.01445379    -0.13108993
H     -1.64906656    -0.01367785    -0.97272672
6
water_dimer water clusters train frame=17
O      1.25181150    -0.11457062     0.13033533
H      0.38173316     0.06019346     0.04827106
H      1.54912767     0.00954034     0.93169842
O     -1.47310301     0.00993687    -0.00134748
H     -0.40882056    -0.03671262    -0.04511405
H     -1.62527892    -0.08124867    -0.85250351
6
water_dimer water clusters train frame=18
O      1.39117207    -0.00295793    -0.01497605
H      0.43491759    -0.00098078    -0.02225003
H      1.64381030     0.06875117     1.00625628
O     -1.35573170    -0.01519195     0.13226643
H     -0.40867146     0.01113155    -0.03399928
H     -1.61483116    -0.02097814    -0.95335007
6
water_dimer water clusters train frame=19
O      1.37466216     0.00960957     0.00402300
H      0.42530093    -0.11899674     0.02947270
H      1.56836723    -0.01216421     0.82774625
O     -1.35409880     0.01822903    -0.01927700
H     -0.45329876    -0.04007677     0.08699211
H     -1.66152354    -0.07500680    -0.97428844
6
water_dimer water clusters train frame=20
O      1.38231503    -0.03061082    -0.00989350
H      0.44308483     0.10389070     0.15111223
H      1.57188727    -0.02341439     0.90336008
O     -1.29988434     0.12631271     0.07505538
H     -0.44279338     0.01851916    -0.08232932
H     -1.62757058     0.00510360    -0.98897419
6
water_dimer water clusters train frame=21
O      1.38344789     0.04708005    -0.01739903
H      0.43465775    -0.00731212    -0.07987147
H      1.64855628    -0.05113605     0.85709340
O     -1.36714021     0.00442818     0.01771584
H     -0.40907143     0.04724127     0.01111445
H     -1.57866372     0.02124018    -0.97786389
6
water_dimer water clusters train frame=22
O      1.38964232     0.02902985     0.01942705
H      0.42349971    -0.00686559     0.09442636
H      1.64837667    -0.05205636     1.00030900
O     -1.35818213     0.00996535    -0.00334978
H     -0.56940026    -0.15393920    -0.03594052
H     -1.54814920     0.03329480    -1.00902181
6
water_dimer water clusters train frame=23
O      1.44560284     0.12429257    -0.10082979
H      0.36239727    -0.12157970    -0.08706922
H      1.45673555    -0.07867070     0.94013127
O     -1.36873914     0.06179794     0.07242989
H     -0.45786118    -0.17527548     0.01000245
H     -1.61952900    -0.08661759    -0.84785469
6
water_dimer water clusters train frame=24
O      1.35390930     0.01923013     0.01853059
H      0.48319779    -0.07746535    -0.06129437
H      1.59879897     0.04024236     0.98693030
O     -1.39463902    -0.00461090     0.06445787
H     -0.43918868     0.00564155     0.03707715
H     -1.59114475    -0.01166543    -0.89789250
6
water_dimer water clusters train frame=25
O      1.37226752    -0.04567398    -0.06814057
H      0.44448192     0.10821119     0.00541798
H      1.61603410     0.03542098     0.88525081
O     -1.38378447     0.02887699     0.00594238
H     -0.36846258     0.01405311    -0.01902540
H     -1.58346873     0.05262103    -0.82339200
6
water_dimer water clusters train frame=26
O      1.28283164    -0.05004824     0.18093443
H      0.43370342     0.13314021     0.02746378
H      1.57318013    -0.06769868     0.87569112
O     -1.29409954    -0.13425135    -0.07523283
H     -0.39040045     0.01206502    -0.04639155
H     -1.66609744    -0.06886010    -0.96450564
6
water_dimer water clusters train frame=27
O      1.45282089     0.01587075     0.01392879
H      0.45603714    -0.00361296    -0.08853561
H      1.67713411    -0.07230425     0.91427491
O     -1.35356750    -0.07252512     0.01924389
H     -0.45596305    -0.04515707    -0.00760016
H     -1.64683132    -0.03856914    -0.94385365
6
water_dimer water clusters train frame=28
O      1.41778599    -0.03523351    -0.08160992
H      0.39944084    -0.02896075    -0.10148924
H      1.61950047    -0.03207770     0.94279523
O     -1.38357095    -0.00591142    -0.05071318
H     -0.37685828     0.03362269     0.03116726
H     -1.59284206     0.10734403    -0.94929818
6
water_dimer water clusters train frame=29
O      1.31604345     0.06803451    -0.05696933
H      0.38222069     0.05715763     0.06467119
H      1.73485168    -0.16779170     0.81456397
O     -1.47024669    -0.12244726     0.06872150
H     -0.35928138    -0.16059120     0.03403446
H     -1.52854279     0.09444597    -0.87936857
6
water_dimer water clusters train frame=30
O      1.32729051     0.00913895    -0.03592230
H      0.41546950     0.02232378     0.02723111
H      1.62606301    -0.03157908     1.00126327
O     -1.39641549    -0.00378445     0.04374047
H     -0.42118164    -0.00515558     0.00512047
H     -1.66053842    -0.00243134    -0.93139409
6
water_dimer water clusters train frame=31
O      1.36782389    -0.01661110    -0.01763629
H      0.50366035    -0.03788555    -0.04239272
H      1.61717332     0.05710033     0.91282601
O     -1.33913731     0.00115739     0.07029868
H     -0.42130810    -0.11152434    -0.11347186
H     -1.53082386    -0.06514473    -0.83324928
6
water_dimer water clusters train frame=32
O      1.43240582    -0.12309365     0.09191912
H      0.36443735     0.04686674    -0.04343308
H      1.51625996    -0.00414274     0.89912331
O     -1.38579929    -0.00516039     0.11294533
H     -0.50634385     0.09224492    -0.01058697
H     -1.72094759     0.05851706    -0.86226170
6
water_dimer water clusters train frame=33
O      1.41071719    -0.01631130     0.05783154
H      0.45941596    -0.01793201     0.01974467
H      1.53154255    -0.00723879     0.90110681
O     -1.39045296     0.04182059     0.00226294
H     -0.43143055     0.10246909     0.08182314
H     -1.69366047     0.02775135    -0.94340905
6
water_dimer water clusters train frame=34
O      1.32988289    -0.05714896    -0.07335523
H      0.40765804     0.00706475     0.03411898
H      1.70636024     0.03112724     0.98653696
O     -1.27609709    -0.03054584    -0.04125191
H     -0.40196707    -0.01619674     0.03126710
H     -1.51792406    -0.08985807    -0.83143169
6
water_dimer water clusters train frame=35
O      1.40142523    -0.04782401    -0.05805658
H      0.29446772    -0.06526197    -0.04469608
H      1.61868426    -0.04028566     0.90881357
O     -1.22102509     0.01345729     0.06032632
H     -0.35804450     0.07465256     0.04023721
H     -1.63951005    -0.16870650    -0.94105159
6
water_dimer water clusters train frame=36
O      1.41928454     0.02396252    -0.01560810
H      0.47090555     0.08784520    -0.03354341
H      1.60673821     0.02338131     0.83118624
O     -1.38797959     0.00168212     0.03185914
H     -0.49446485     0.06148361    -0.00762726
H     -1.59489824    -0.04074317    -0.89759143
6
water_dimer water clusters train frame=37
O      1.39768603     0.10201993     0.02485225
H      0.49200231    -0.07789886     0.09703945
H      1.68628875    -0.01033362     0.87729949
O     -1.34393075    -0.02476464    -0.02553962
H     -0.37709576     0.01138440    -0.05003490
H     -1.64308748     0.03944037    -0.86176303
6
water_dimer water clusters train frame=38
O      1.56595320    -0.04633995     0.00113308
H      0.47518232    -0.06495248    -0.14460618
H      1.68899961     0.06726312     0.84599309
O     -1.19069464     0.05665889    -0.01974573
H     -0.37969387    -0.01153186    -0.00067419
H     -1.43115051    -0.11144885    -0.76190834
6
water_dimer water clusters train frame=39
O      1.33024917    -0.02660633     0.05692596
H      0.39133954    -0.01873045     0.03735614
H      1.60255227     0.02383393     0.89927513
O     -1.32394489    -0.01228178     0.00564492
H     -0.39999967    -0.05456606     0.04535634
H     -1.64605354    -0.03885468    -0.86661149
9
water_trimer water clusters train frame=250
O      1.55436835     0.03027591     0.11931506
H      0.81162106     0.46244493     0.14730298
H      1.75483568    -0.07097894     1.11169475
O     -0.83596012     1.35015489    -0.16587697
H     -0.81360142     0.41153160    -0.11761461
H     -0.82469540     1.60959673    -1.03476380
O     -0.82717617    -1.39628595     0.10106266
H      0.00678928    -0.92396699     0.06486315
H     -0.97492717    -1.47497883     1.16599446
9
water_trimer water clusters train frame=251
O      1.52932438     0.02769272     0.11672523
H      0.64835490     0.51822540     0.10765164
H      1.69936260    -0.06357037     1.12439894
O     -0.84603164     1.45938683    -0.15811576
H     -0.75542026     0.53264991    -0.00949614
H     -0.77589914     1.56607460    -1.14785147
O     -0.74788908    -1.29520463     0.08355845
H      0.09177593    -0.95926868    -0.00298730
H     -1.00038241    -1.42279354     1.16469852
9
water_trimer water clusters train frame=252
O      1.50113191     0.05605495     0.06993796
H      0.86137975     0.53896395    -0.00860159
H      1.85154458     0.09351249     1.03869121
O     -0.74766301     1.41806657    -0.14342417
H     -0.89338893     0.41464843    -0.23738111
H     -0.77331078     1.54660435    -1.12145481
O     -0.89716543    -1.46625517     0.11858351
H      0.01424904    -0.91102264     0.12244752
H     -0.98695986    -1.44318693     1.02670318
9
water_trimer water clusters train frame=253
O      1.66100575    -0.03851578     0.18164854
H      0.74976900     0.54606537     0.02294824
H      1.71699873    -0.03678724     1.10973520
O     -0.79990095     1.33046430    -0.13572434
H     -0.83765669     0.52522462    -0.11917698
H     -0.76063573     1.47565470    -1.08427372
O     -0.80264411    -1.42472731     0.13846458
H      0.01728706    -0.92449481     0.09936089
H     -0.99955770    -1.41135439     1.07817370
9
water_trimer water clusters train frame=254
O      1.58108812     0.11070287     0.14141304
H      0.76469914     0.51070990     0.04107725
H      1.85373322    -0.14257868     1.05960718
O     -0.83667050     1.36548340    -0.08245144
H     -0.81580457     0.42283093    -0.03048020
H     -0.73265034     1.59569522    -1.04220962
O     -0.79366221    -1.35288047     0.13749267
H      0.05499075    -0.74848613     0.13221505
H     -1.05435248    -1.51130854     1.11599050
9
water_trimer water clusters train frame=255
O      1.64849706     0.04405833     0.22545890
H      0.78729463     0.49519130     0.11702000
H      1.71947880    -0.17985217     1.06846884
O     -0.89154085     1.31888662    -0.22877572
H     -0.94905036     0.37734714    -0.05523611
H     -0.81853304     1.55243197    -1.05114369
O     -0.71923900    -1.45793224     0.06091131
H      0.08614472    -0.82289161     0.06779581
H     -1.05655377    -1.37811142     1.12482246
9
water_trimer water clusters train frame=256
O      1.54850923    -0.02819528     0.16279506
H      0.74591238     0.45627904     0.03022722
H      1.75272814    -0.15443350     1.10712028
O     -0.66729519     1.44779227    -0.07648210
H     -0.83187710     0.44933895    -0.13389173
H     -0.80745883     1.53861315    -1.10969200
O     -0.78438618    -1.38123492     0.13980702
H      0.03196218    -0.82812679     0.12945703
H     -0.99699452    -1.49355384     1.00706174
9
water_trimer water clusters train frame=257
O      1.54149495     0.07824306     0.09277329
H      0.68168544     0.38966774     0.02841199
H      1.67955347    -0.11070424     1.07740259
O     -0.81487995     1.37006412    -0.13611192
H     -0.81032634     0.49759352    -0.10541951
H     -0.76182884     1.56538029    -1.14642512
O     -0.82698456    -1.35052801     0.11996707
H      0.01032949    -0.99739149     0.05229773
H     -0.93614680    -1.57813770     1.02176262
9
water_trimer water clusters train frame=258
O      1.60325232     0.03288611     0.16093509
H      0.84600887     0.45986330     0.11413321
H      1.65037867    -0.15731538     1.12764586
O     -0.89233577     1.60941078    -0.20995502
H     -0.76088757     0.43919998    -0.09548494
H     -1.00134199     1.57305930    -1.02781212
O     -0.84186453    -1.33857639    -0.00316174
H     -0.02253197    -0.91145032     0.08160854
H     -0.93764590    -1.52036263     1.10149201
9
water_trimer water clusters train frame=259
O      1.54942448     0.00023444     0.23245228
H      0.77593924     0.48822811     0.12190394
H      1.84236913    -0.02858355     1.08770553
O     -0.82211500     1.39779367    -0.12488546
H     -0.80280483     0.37761700    -0.09962645
H     -0.79376031     1.57772191    -1.10131552
O     -0.80066497    -1.37817186     0.13627807
H     -0.00696404    -0.90815842     0.10201525
H     -0.96979166    -1.52585128     1.08521146
9
water_trimer water clusters train frame=260
O      1.59504010    -0.01872801     0.15763171
H      0.70537104     0.57604931     0.07799036
H      1.69098745    -0.05482048     1.04959988
O     -0.85723856     1.40433443    -0.15607794
H     -0.84747452     0.48739728    -0.12227056
H     -0.70769042     1.60389133    -1.02100134
O     -0.78580118    -1.34073448     0.11934960
H     -0.08358204    -0.86837197     0.21692826
H     -0.99381491    -1.51114439     1.20870667
9
water_trimer water clusters train frame=261
O      1.63006385    -0.01518902    -0.00513181
H      0.74189782     0.35617368     0.04598422
H      1.69435242     0.07421004     1.03771438
O     -0.76449673     1.35698981    -0.15525148
H     -0.80693990     0.43233506    -0.15673184
H     -0.68551375     1.58476029    -1.16544512
O     -0.77098767    -1.42454846     0.08255348
H     -0.00655661    -1.02843406     0.04148035
H     -1.18248981    -1.43722239     1.04115407
9
water_trimer water clusters train frame=262
O      1.53531780     0.02728289     0.12341141
H      0.73799123     0.49081566     0.10941146
H      1.81846961    -0.12534225     1.05760395
O     -0.77051621     1.39470669    -0.13065050
H     -0.75520206     0.39744083    -0.13228529
H     -0.82485774     1.56330560    -1.06198660
O     -0.72956752    -1.29813404     0.14197582
H      0.04197443    -0.86699339     0.05337723
H     -0.95644874    -1.43789889     1.10495521
9
water_trimer water clusters train frame=263
O      1.69596752    -0.00026064     0.19710104
H      0.71137803     0.43768814     0.20832863
H      1.71807211    -0.15011251     1.07385317
O     -0.80678773     1.37616163    -0.10956225
H     -0.77088615     0.42461080    -0.11706603
H     -0.66297602     1.65730326    -1.09184369
O     -0.75430314    -1.41725150     0.16828155
H      0.02637828    -0.85835929     0.15544669
H     -0.84009144    -1.53630531     1.09328948
9
water_trimer water clusters train frame=264
O      1.60038228    -0.05078560     0.14939171
H      0.76009282     0.51155351     0.10260075
H      1.74467264    -0.07553088     1.18271869
O     -0.78909791     1.32961831    -0.23192447
H     -0.68768932     0.52372619    -0.00301947
H     -0.85696324     1.62876715    -1.01543968
O     -0.73472238    -1.43520332     0.09586028
H      0.16178849    -0.97388893     0.03645739
H     -1.05434498    -1.50000620     1.14808385
9
water_trimer water clusters train frame=265
O      1.52016884     0.01362166     0.15081740
H      0.76813888     0.44480066     0.01721177
H      1.77067882    -0.09953296     1.02338006
O     -0.83036850     1.41562656    -0.11341673
H     -0.79042346     0.44180054    -0.10896084
H     -0.85527017     1.54012077    -1.08099955
O     -0.70059765    -1.37715148     0.14785971
H      0.03911827    -0.90768251     0.12589878
H     -0.90765695    -1.37884351     1.12759892
9
water_trimer water clusters train frame=266
O      1.51306817     0.01808350     0.15919049
H      0.81478056     0.57139274     0.18163509
H      1.67326234    -0.07629976     1.18682289
O     -0.82767818     1.38179315    -0.24605573
H     -0.80288172     0.41223730    -0.11420091
H     -0.80323313     1.58631629    -1.10758290
O     -0.78527561    -1.31789478     0.21437144
H     -0.01756420    -1.01168743     0.11667521
H     -1.03680166    -1.49191937     1.03554902
9
water_trimer water clusters train frame=267
O      1.64201358    -0.08983580     0.22130165
H      0.72464410     0.44202607     0.13183082
H      1.64155237     0.16815307     1.12995732
O     -0.79248063     1.31601281    -0.07997348
H     -0.78128195     0.31091409     0.00985801
H     -0.83187761     1.57609806    -1.08977591
O     -0.86377298    -1.39400428     0.18448550
H      0.09001676    -0.77339885    -0.01926213
H     -0.93327019    -1.51423617     1.11756542
9
water_trimer water clusters train frame=268
O      1.56206509    -0.00024353     0.17830629
H      0.77062142     0.43613957     0.12647022
H      1.69897653    -0.12472953     1.05577809
O     -0.73373424     1.43850642    -0.16202641
H     -0.76703466     0.45475471    -0.12898563
H     -0.80557622     1.58086739    -1.06892864
O     -0.83752691    -1.42672196     0.09054351
H      0.08502883    -0.87909872     0.08230794
H     -0.90178652    -1.43893449     1.11841644
9
water_trimer water clusters train frame=269
O      1.53173185     0.11124721     0.11153293
H      0.70534022     0.42762743     0.08399483
H      1.78281721    -0.13130219     1.19035530
O     -0.72956302     1.25840615    -0.15881503
H     -0.80052435     0.44273684    -0.06723266
H     -0.75677488     1.54578762    -1.04726443
O     -0.77382264    -1.36720867     0.13745036
H      0.09018083    -0.88764014     0.15474990
H     -0.92904048    -1.52257193     1.07901226
