9
Properties=species:S:1:pos:R:3 pbc="F F F"
C       -0.23614507      -0.48406480      -0.03915515
C       -0.95046644       0.77093643       0.52302617
O        1.07489421      -0.29931330      -0.48710465
H       -0.31705972      -1.26705327       0.74966478
H       -0.92669221      -0.84096080      -0.91455045
H       -1.70204168       0.47567217       1.23429522
H       -0.21176082       1.43436343       1.00113665
H       -1.35766460       1.34195357      -0.30271140
H        1.59180633       0.18724692       0.19830645
9
Properties=species:S:1:pos:R:3 pbc="F F F"
C       -0.39622603       0.29966510      -0.26796001
C       -0.50038139       0.01449007       1.21902799
O        0.78864562      -0.29180021      -0.91446818
H       -1.15752329      -0.26587890      -0.81800682
H       -0.38686354       1.40995106      -0.49727795
H       -1.29066693       0.61877030       1.67971268
H       -0.80745987      -1.04057132       1.20118673
H        0.38660564       0.21823409       1.83567868
H        1.42051002      -0.05365409      -0.21861366
9
Properties=species:S:1:pos:R:3 pbc="F F F"
C       -0.34465478       0.13113282       0.28825483
C        0.11072826       1.27039547      -0.66676676
O        0.23974657      -1.25861158       0.37324155
H       -0.05844532       0.41496646       1.41851336
H       -1.40302831      -0.06783420       0.22858188
H        1.15732839       1.63590488      -0.40921920
H        0.05872233       1.04110730      -1.72606411
H       -0.60762968       2.16249936      -0.64154600
H       -0.16603296      -1.91047446      -0.28448465
9
Properties=species:S:1:pos:R:3 pbc="F F F"
C       -0.08968956       0.32364899       0.41129418
C        0.70613277       0.86319109      -0.72878648
O       -0.58101163      -1.07008034       0.33477152
H        0.32893501       0.27394467       1.42690519
H       -0.99993461       0.96060102       0.68559618
H        0.29512664       0.51013586      -1.73238151
H        0.68029510       1.91678955      -0.74925211
H        1.80530818       0.39637688      -0.63931052
H       -0.23369994      -1.21606050      -0.52224223
9
Properties=species:S:1:pos:R:3 pbc="F F F"
C       -0.22590821      -0.48381197       0.08506863
C       -0.96742720       0.79487346       0.48318323
O        1.06032870      -0.28640986      -0.56922910
H       -0.06282576      -1.19014868       0.98315592
H       -0.80785025      -0.95778176      -0.77900908
H       -1.98431689       0.48624369       0.76009908
H       -0.55927553       1.17264322       1.48992849
H       -0.92500107       1.58947601      -0.29457464
H        1.72718302      -0.26227976       0.10464354
9
Properties=species:S:1:pos:R:3 pbc="F F F"
C        0.12088588      -0.37406141      -0.28018699
C       -1.22130616       0.10917319      -0.35379212
O        1.02537037       0.24890071       0.54044350
H        0.24261463      -1.39651410      -0.15200743
H        0.52806188      -0.26020531      -1.24588916
H       -1.20996920       1.18784874      -0.39112902
H       -1.68466632      -0.26280543      -1.24594860
H       -1.82212694      -0.22212348       0.46607585
H        0.78172117       0.15783836       1.54479095
9
Properties=species:S:1:pos:R:3 pbc="F F F"
C       -0.22144436       0.35996472       0.54201639
C        0.30714936       0.94810280      -0.94019914
O       -0.07408548      -1.15336098       0.32069599
H        0.29902305       0.56658113       1.50095787
H       -1.34240056       0.63290039       0.64554507
H        0.88899894       1.87728572      -0.90299124
H        0.99736653       0.02571676      -1.23257182
H       -0.52049424       1.26204499      -1.59156597
H       -0.16876513      -1.64535421       1.23488136
9
Properties=species:S:1:pos:R:3 pbc="F F F"
C       -0.18297150      -0.55472967       0.00174260
C       -0.95206752       0.69012805       0.57706948
O        1.04156710      -0.08975590      -0.52024122
H        0.00989690      -1.40079273       0.61049207
H       -0.81047879      -0.97541277      -0.76441809
H       -1.84166049       0.32491317       1.35216149
H       -0.29789672       1.48803590       1.03025695
H       -1.56641033       1.30139159      -0.14369360
H        1.49760787      -0.92832599      -0.72399458
9
Properties=species:S:1:pos:R:3 pbc="F F F"
C        0.34591059       0.32481943       0.35584958
C       -1.11629360       0.01117093       0.60141086
O        0.77371095      -0.34691359      -0.83492758
H        0.35506270       1.42768426       0.25112467
H        1.02599711       0.15081666       1.22998147
H       -1.59978327       0.67961095       1.35488599
H       -1.70507852       0.32179181      -0.27084744
H       -1.37665578      -1.09215850       0.83509629
H        0.19802233       0.01375074      -1.55392842
9
Properties=species:S:1:pos:R:3 pbc="F F F"
C        0.54015307       0.17856406       0.06845232
C       -0.32728933       1.03365372      -0.77083483
O       -0.12866523      -1.12192875       0.60401198
H        1.24882593      -0.35950419      -0.44588025
H        0.89508654       0.72826666       0.96049187
H       -1.28219408       0.53741554      -1.10863492
H       -0.76343808       1.86929784      -0.19215677
H        0.29271786       1.46365765      -1.58787431
H       -0.88613976      -0.87674018       1.15600198
