24
water clusters ood_size frame=0
O     -0.00601732     0.02813190     0.01202117
H      0.94518366     0.04924256     0.09319309
H     -0.25104085    -0.74359447    -0.54105942
O      2.81032262     0.05056342    -0.05131065
H      2.83436810     0.92631969    -0.02020797
H      3.39534536    -0.23457152    -0.71463683
O      2.74916074     2.63557255     0.09091284
H      1.71498227     2.77702331     0.00158801
H      2.92400745     3.31503499    -0.67890229
O      0.01903483     2.83512800     0.03628302
H     -0.08247121     1.85900345     0.05370874
H     -0.69651069     2.90426346    -0.65238335
O     -0.01365665    -0.07347356     2.70186477
H      0.12343066     0.97730985     2.71197581
H     -0.62709390    -0.24677836     3.42415267
O      2.72958355     0.07925709     2.69507361
H      1.83531386    -0.01832146     2.74597264
H      2.89052764    -0.59188365     3.37575871
O      2.69678574     2.77879338     2.84457883
H      2.76712638     1.76844633     2.77556606
H      3.36652699     3.03239692     3.43475121
O      0.01618389     2.76682116     2.79453080
H      0.88272759     2.73060926     2.73897006
H     -0.27689892     3.41486715     3.40727098
24
water clusters ood_size frame=1
O     -0.01313920     0.14129190     0.07665988
H      0.95585395    -0.01678414     0.05714127
H     -0.15635638    -0.64127737    -0.57592130
O      2.82293582     0.07917764     0.00609013
H      2.84941479     1.02024684     0.09087323
H      3.35372812    -0.25061267    -0.82671061
O      2.72557062     2.72830492     0.09159952
H      1.71911693     2.68240639     0.00510719
H      2.99651590     3.34770997    -0.64317307
O      0.09887263     2.84534599     0.07573915
H      0.05004124     1.75213908    -0.04429487
H     -0.59636846     3.03658319    -0.78036297
O     -0.03985913     0.04598803     2.71909379
H      0.06290126     0.95524949     2.69761700
H     -0.52741775    -0.28961766     3.39371451
O      2.84558815     0.03450264     2.67420463
H      1.73305640     0.10079275     2.71842688
H      2.97288896    -0.69608690     3.48809749
O      2.76281487     2.62881123     2.77716836
H      2.70941036     1.84240135     2.75137140
H      3.42906532     3.00781436     3.53769053
O      0.02584180     2.70218842     2.82195523
H      0.92976192     2.80490629     2.80154605
H     -0.29628439     3.37033182     3.45045899
24
water clusters ood_size frame=2
O      0.19218989     0.06771906     0.02309800
H      0.94460828     0.10062856     0.03865017
H     -0.30934381    -0.65939941    -0.77789461
O      2.81327270     0.00797444     0.03659824
H      2.83491273     0.99232464     0.01365354
H      3.46171033    -0.36704770    -0.71204496
O      2.70055391     2.85282630    -0.04535007
H      1.73768676     2.85548658     0.07182756
H      2.99878918     3.44566487    -0.55091092
O      0.12213229     2.69094517    -0.07655871
H     -0.06615894     1.85297337     0.07496866
H     -0.49833891     3.02856436    -0.58330138
O     -0.07391114    -0.14360706     2.80474143
H     -0.02119331     1.06314041     2.70956494
H     -0.76430764    -0.25180289     3.39304895
O      2.70287304     0.09118336     2.48601849
H      1.82755250    -0.00604985     2.88303979
H      3.00634995    -0.62370723     3.26954441
O      2.71902098     2.79480045     2.50334892
H      2.85509954     1.61922577     2.77785388
H      3.25771938     3.11922501     3.32765222
O      0.00305069     2.65523786     2.71820643
H      0.95250362     2.89105849     2.79271038
H     -0.32409762     3.36481558     3.26624663
24
water clusters ood_size frame=3
O      0.02959276    -0.02696833     0.00750797
H      0.99590196     0.07642365     0.07844449
H     -0.16333343    -0.64458618    -0.62090520
O      2.85967825     0.08491452     0.01827397
H      2.65262560     0.91212712     0.02959758
H      3.46464860    -0.35876340    -0.71541402
O      2.87863675     2.70923847     0.01694117
H      1.81143468     2.72898828    -0.04341568
H      2.97277351     3.38276954    -0.72581492
O      0.08793845     2.85229263     0.00445917
H      0.02484980     1.83244562     0.06075509
H     -0.62092324     3.10146423    -0.61120993
O      0.00587047     0.00680244     2.77827175
H     -0.02449757     0.91926951     2.73957575
H     -0.68514557    -0.25810968     3.46046665
O      2.76420223     0.09545351     2.68405827
H      1.84639322     0.02599781     2.84699656
H      2.96444543    -0.68917907     3.42002760
O      2.83301635     2.77089412     2.82931583
H      2.76454480     1.86352305     2.75142247
H      3.43041578     2.94619250     3.34228584
O      0.06237383     2.77082736     2.78905241
H      0.87623043     2.73530975     2.81608327
H     -0.19822501     3.39505899     3.43866065
24
water clusters ood_size frame=4
O     -0.10171283     0.07118992     0.13482419
H      0.95074357     0.00324359    -0.01456069
H     -0.27281359    -0.57704875    -0.49743934
O      2.72561572     0.04520212    -0.02136883
H      2.61643575     1.08036815     0.00925792
H      3.39283348    -0.25520557    -0.59576458
O      2.62520101     2.83619220     0.05241156
H      1.75939664     2.70973004    -0.04518506
H      2.92317257     3.40791456    -0.59623417
O     -0.11735811     2.82613043     0.06174999
H      0.05099170     1.76622942    -0.04784600
H     -0.56446470     2.98533444    -0.62854881
O     -0.04048293    -0.14771749     2.75639052
H      0.01224326     1.00445126     2.76979879
H     -0.78703214    -0.21340814     3.46876124
O      2.73931666     0.02217055     2.72023049
H      1.71394310    -0.02279572     2.64795171
H      3.06782334    -0.64282853     3.39565212
O      2.82193561     2.65726800     2.70534156
H      2.66612747     1.84117357     2.58623597
H      3.45141073     3.02177291     3.28680037
O      0.03572469     2.76432534     2.70791235
H      1.03189377     2.67586651     2.68344773
H     -0.14233518     3.36681406     3.44509658
24
water clusters ood_size frame=5
O     -0.12283735    -0.07297166     0.11744804
H      1.08380512    -0.04670972     0.15494795
H     -0.23282965    -0.66906979    -0.46829446
O      2.83470287     0.08364786    -0.09363108
H      2.80106966     0.93645542    -0.12274662
H      3.40778673    -0.01531312    -0.57693551
O      2.78299144     2.70077898     0.11329077
H      1.73174909     2.61159004     0.06105600
H      2.73072604     3.46018251    -0.67952340
O     -0.09896388     2.60102434     0.11623849
H      0.05343130     1.73230906     0.25392012
H     -0.48741718     2.90438716    -0.61878376
O      0.08644338     0.12472119     3.11617867
H     -0.04737491     0.93860144     2.67063249
H     -0.66645960    -0.26630513     3.44851973
O      2.77829030    -0.12050054     2.59315089
H      1.83449696    -0.05202690     2.57111929
H      2.83280920    -0.70584614     3.16584209
O      2.59214168     2.66541422     2.75702595
H      2.69945432     1.89387850     2.70817220
H      3.30148005     2.95159935     3.30969435
O     -0.05081099     2.70027706     2.61695651
H      1.03622801     2.67769985     2.70684021
H     -0.24092373     3.44155690     3.35358762
24
water clusters ood_size frame=6
O     -0.00746772     0.05915712    -0.03456331
H      0.95914541     0.01866301    -0.02583304
H     -0.20580717    -0.69435318    -0.63336513
O      2.75509308     0.07140310     0.01418034
H      2.79607160     0.92918242     0.01213375
H      3.42050166    -0.27179289    -0.71474586
O      2.71720406     2.75796702    -0.03524812
H      1.85661623     2.72787335     0.03059893
H      2.97684525     3.33845943    -0.58523304
O      0.06116228     2.75624157     0.05408237
H     -0.06437876     1.74042023    -0.01463902
H     -0.73770456     2.94053428    -0.69156534
O     -0.00295925     0.03736146     2.78925166
H      0.00481257     0.93344596     2.70100944
H     -0.68019260    -0.28006442     3.34665507
O      2.72945244    -0.07828780     2.76814321
H      1.79784410    -0.01749751     2.70445790
H      3.01278514    -0.64363965     3.40011140
O      2.75701494     2.68679785     2.88342066
H      2.75790838     1.79972924     2.74713380
H      3.43759774     2.95693095     3.40310765
O     -0.07305861     2.73639940     2.69222689
H      1.00646217     2.77955681     2.71837228
H     -0.21436571     3.35878394     3.42592970
24
water clusters ood_size frame=7
O      0.05340904    -0.00519284    -0.06814429
H      0.96766627     0.05556621    -0.10624592
H     -0.26702555    -0.63786510    -0.65256372
O      2.78006261    -0.18452565    -0.05727160
H      2.74856310     0.79721269    -0.11918703
H      3.26530398    -0.26040608    -0.65359605
O      2.67243274     2.80463060    -0.10428653
H      1.88713282     2.67634228    -0.04733286
H      3.02374111     3.38741216    -0.63308180
O     -0.04423145     2.77185594     0.04053316
H      0.00043374     1.71732161     0.05813500
H     -0.62562141     3.06037688    -0.69924467
O     -0.09364556    -0.00428080     2.69414395
H      0.02205861     0.99594185     2.81510366
H     -0.74289954    -0.24434332     3.33907038
O      2.89624848    -0.07552025     2.73466061
H      1.84084298    -0.01511592     2.76213029
H      3.06545457    -0.72314434     3.41860544
O      2.82649876     2.74208978     2.71741788
H      2.73505887     1.85307311     2.67516065
H      3.33379227     3.13101735     3.54537855
O     -0.07018802     2.60440093     2.61805968
H      1.01041192     2.87544975     2.72248339
H     -0.23020308     3.46236239     3.41116602
24
water clusters ood_size frame=8
O      0.02511753    -0.00585031    -0.06568330
H      1.04755203     0.11291066     0.09695935
H     -0.29266893    -0.78243412    -0.81559134
O      2.62856401     0.04111203     0.07175551
H      2.78550172     1.22803912     0.00438251
H      3.37357903    -0.32660681    -0.46556133
O      2.65715359     2.64618152    -0.10769613
H      1.70032891     2.75711412    -0.06309701
H      3.09862228     3.38832645    -0.65368030
O      0.13075268     2.57627969    -0.09648088
H     -0.03400432     1.69387808    -0.22951931
H     -0.70154951     2.95234476    -0.47088828
O      0.00522519     0.09648976     2.69346169
H     -0.13261817     0.98345577     2.71799143
H     -0.44917961    -0.05511473     3.27704930
O      2.69415183    -0.16345958     2.83422799
H      1.69470149     0.06649046     2.80052035
H      2.87067479    -0.85502414     3.37941905
O      2.76338733     2.64068678     2.79659647
H      2.91942065     1.75909953     2.69819240
H      3.53614930     2.82531000     3.47233971
O      0.04831515     2.77030990     2.67896753
H      1.15096896     2.70040610     2.60852231
H     -0.23165879     3.29210918     3.50599346
24
water clusters ood_size frame=9
O      0.01255742    -0.12090133     0.06317876
H      0.95405428    -0.03420253     0.05342592
H     -0.35811151    -0.71096914    -0.65822718
O      2.76411215     0.03231993     0.01603855
H      2.68591233     0.90030031    -0.05026086
H      3.43343002    -0.23295463    -0.74865857
O      2.74657852     2.66787283     0.04713886
H      1.81264554     2.69107869     0.02411974
H      2.99780945     3.27998706    -0.60654282
O     -0.08211073     2.69611497    -0.01121546
H      0.01522581     1.84950844     0.02907119
H     -0.58435292     3.01960834    -0.59654032
O     -0.01964643    -0.00403218     2.74877235
H     -0.04522750     0.92963586     2.77177519
H     -0.69952098    -0.21522137     3.43061953
O      2.71896311     0.07774278     2.70359082
H      1.73497917    -0.04262148     2.67559688
H      2.99346537    -0.67842898     3.42228004
O      2.79375393     2.70528859     2.71456751
H      2.82306957     1.78569299     2.70990730
H      3.42533319     2.97697176     3.41381261
O     -0.01517748     2.73136649     2.81957318
H      0.87034894     2.77571396     2.79047563
H     -0.30845056     3.36839194     3.41675643
24
water clusters ood_size frame=10
O     -0.01630265    -0.00275917    -0.10227334
H      0.87560693     0.08484616    -0.10095881
H     -0.24183989    -0.65796714    -0.67917799
O      2.73911674    -0.00629078     0.06140419
H      2.68882806     0.97518863    -0.10757889
H      3.35883224    -0.24252809    -0.75463592
O      2.71315049     2.75026405    -0.04486153
H      1.77647440     2.68848766     0.00151418
H      3.03054742     3.28803601    -0.65244173
O      0.04720368     2.71476753    -0.05078273
H      0.05229860     1.73153735    -0.05039175
H     -0.72248416     2.96332468    -0.67073727
O      0.02645073     0.05518394     2.76926600
H     -0.01441487     0.97597693     2.67795746
H     -0.67222401    -0.19707631     3.37618010
O      2.76582547     0.01608857     2.69643654
H      1.77762954    -0.05581192     2.62938520
H      2.92046497    -0.75469436     3.37341023
O      2.81992932     2.74979426     2.75354824
H      2.69404300     1.76917497     2.78288052
H      3.40577515     3.09394265     3.44012906
O      0.03951854     2.73936686     2.65336155
H      1.01667687     2.78524494     2.85712380
H     -0.19851609     3.32662828     3.31664005
24
water clusters ood_size frame=11
O     -0.05386484    -0.11624758    -0.10543936
H      0.92549794     0.17174678     0.02771593
H     -0.42979774    -0.61343357    -0.54962512
O      2.94233050     0.01025543     0.18646870
H      2.65350619     0.95120070     0.23303484
H      3.43657053    -0.22020474    -0.78933110
O      2.69863935     2.71292459    -0.14150798
H      1.94362139     2.67058978     0.15380632
H      2.94469128     3.55760465    -0.62618316
O     -0.03684921     2.61978389    -0.06126012
H      0.08683611     1.76211789    -0.01759345
H     -0.65755927     2.84656785    -0.67699380
O     -0.07476841     0.04027708     2.88171535
H     -0.05019508     0.98331444     2.68765588
H     -0.81267871    -0.01736532     3.42839309
O      2.64901794    -0.17495732     2.68425171
H      1.86364450    -0.09865495     2.81461298
H      3.11510213    -0.74174251     3.31812279
O      2.71688501     2.62770199     2.70060857
H      2.81573037     1.79387717     2.68053742
H      3.49699858     2.90396166     3.46027465
O     -0.10990677     2.92297402     2.67883237
H      0.90597723     2.82210108     2.92871396
H     -0.41373235     3.38251425     3.32035821
24
water clusters ood_size frame=12
O      0.02310318    -0.04721842    -0.01430920
H      0.78794341    -0.02629377    -0.00601314
H     -0.25275163    -0.66075234    -0.66760471
O      2.83947140     0.03961391     0.05883153
H      2.75472677     0.88141775    -0.06671670
H      3.36055876    -0.20791915    -0.65393588
O      2.84022077     2.83452742    -0.04732735
H      1.79895803     2.72587508     0.04021098
H      2.96384618     3.50937817    -0.65200705
O     -0.01270317     2.74914636     0.01308010
H     -0.06938278     1.80251631    -0.04682397
H     -0.59845507     2.94289802    -0.66397157
O     -0.03705723    -0.00537395     2.76415737
H      0.03700274     0.94762616     2.78628705
H     -0.65448009    -0.24966831     3.34938747
O      2.76700154    -0.03280739     2.74208247
H      1.78382933     0.02789774     2.71530054
H      2.94611939    -0.67049161     3.48769476
O      2.68717159     2.75005078     2.71447218
H      2.67199690     1.84015379     2.81886150
H      3.43656340     2.99036622     3.38767293
O     -0.03600540     2.77937634     2.77470772
H      0.95033593     2.81181529     2.84272081
H     -0.19891916     3.45238887     3.42287891
24
water clusters ood_size frame=13
O     -0.01597389     0.02910284    -0.02948995
H      0.97991014    -0.06871120    -0.14195360
H     -0.16143643    -0.77465850    -0.65822771
O      2.75524040    -0.01461149    -0.00167783
H      2.66984820     0.95868467    -0.10447739
H      3.56069133    -0.14863027    -0.71694598
O      2.64411658     2.62563174     0.02161734
H      1.75161117     2.71513583    -0.13369426
H      2.93958385     3.48382696    -0.60057882
O      0.00153098     2.82412430     0.01690807
H     -0.08551218     1.72267882     0.00592486
H     -0.66364158     2.94632567    -0.67412318
O      0.04515010    -0.02456367     2.71019112
H      0.10176716     0.98080775     2.65292348
H     -0.47565245    -0.38962778     3.47917605
O      2.76225862     0.05499488     2.79655517
H      1.80565387     0.03578262     2.65387951
H      2.96277013    -0.58842641     3.35391352
O      2.81102245     2.62446941     2.60355424
H      2.87644142     1.79560001     2.84139879
H      3.41198524     3.04970919     3.43002372
O     -0.10260593     2.71042657     2.68189323
H      0.86986832     2.72525983     2.83814973
H     -0.16963553     3.31893118     3.39979068
24
water clusters ood_size frame=14
O     -0.05326962     0.09289550    -0.04413607
H      0.76493776    -0.06518270    -0.20211423
H     -0.35856247    -0.70330417    -0.74398248
O      2.79828034    -0.08417556    -0.13142336
H      2.62323538     0.81174161     0.03893380
H      3.53632056    -0.34224854    -0.73180708
O      2.61404127     2.80892264     0.09316993
H      1.69111339     2.81910223    -0.03015856
H      3.01620955     3.56296820    -0.50042197
O      0.03002628     2.67870336     0.05660654
H      0.01094208     1.76802365     0.03670045
H     -0.67121856     2.91855935    -0.61646967
O      0.00678659    -0.01940450     2.73047780
H     -0.02380039     0.90795054     2.77673107
H     -0.60017461    -0.43753188     3.28810085
O      2.74896268    -0.21488604     2.61632020
H      1.76572036     0.03115621     2.83012437
H      2.80373560    -0.57073755     3.35614125
O      2.73425461     2.63811187     2.68862969
H      2.79358934     1.70801643     2.71948862
H      3.54258141     2.76366802     3.50117156
O      0.11358526     2.68698062     2.72602965
H      1.03977319     2.83736737     2.80726892
H     -0.09616802     3.25316993     3.28927300
24
water clusters ood_size frame=15
O     -0.05903101    -0.06680842     0.03132891
H      0.83222646     0.04219211    -0.00969214
H     -0.20690205    -0.65484982    -0.70604765
O      2.73608282     0.04338532    -0.02508235
H      2.74497085     0.93686209    -0.04825953
H      3.46122014    -0.26295189    -0.61603553
O      2.75811188     2.72614005    -0.00129740
H      1.75172410     2.79194035    -0.08463414
H      3.02130259     3.43178821    -0.70504545
O      0.03105483     2.79003883     0.02254225
H     -0.04911390     1.78322664    -0.03168325
H     -0.59003292     3.04279602    -0.63625877
O      0.02650930    -0.06214322     2.75374799
H     -0.12672273     0.87833065     2.75177652
H     -0.70543385    -0.16608726     3.57532403
O      2.67516778    -0.01313861     2.67276358
H      1.75968306     0.05926205     2.78664008
H      3.04239909    -0.58052454     3.43357059
O      2.77103210     2.74988275     2.67227496
H      2.78756830     1.84797058     2.78682435
H      3.38693220     3.06204437     3.33938356
O     -0.02359037     2.70825197     2.78660645
H      0.96902249     2.82369394     2.70269102
H     -0.30437009     3.30160066     3.36136110
24
water clusters ood_size frame=16
O     -0.05024225     0.08012250     0.08071622
H      0.99773680     0.00399967     0.03983674
H     -0.25562441    -0.70518826    -0.65338597
O      2.63601684     0.01170976     0.02730715
H      2.72738114     1.03710345    -0.17101126
H      3.30465060    -0.24148939    -0.53294034
O      2.79086871     2.81220949    -0.05819926
H      1.78476931     2.81143237     0.01031896
H      3.01064807     3.41994693    -0.63403339
O     -0.01804577     2.70265104     0.04869899
H      0.09523173     1.73376621    -0.09454925
H     -0.67862331     2.95219767    -0.70225269
O     -0.04440506    -0.05188369     2.72323213
H     -0.04444918     0.88896288     2.77044059
H     -0.72996712    -0.32475834     3.35675559
O      2.65302073     0.01340800     2.74407572
H      1.76484382    -0.02220479     2.93715272
H      2.95276425    -0.68212552     3.42203547
O      2.76674956     2.73631528     2.63957509
H      2.83161953     1.82625697     2.64928450
H      3.49875193     2.96740219     3.42213177
O      0.00102497     2.75548292     2.76273296
H      0.95996247     2.62346526     2.79771770
H     -0.12227183     3.47002497     3.44489565
24
water clusters ood_size frame=17
O      0.04949937    -0.05405102     0.03346993
H      1.07255515     0.04392739     0.20678937
H     -0.08775726    -0.60905970    -0.61646229
O      2.69698365    -0.12924683     0.04473934
H      2.87845405     0.89890465    -0.02768550
H      3.44715491    -0.29441544    -0.67241565
O      2.66869843     2.85574995    -0.00209715
H      1.79640213     2.59118632     0.06461060
H      2.97524364     3.33952642    -0.72893150
O      0.00505392     2.77442319    -0.01361856
H      0.04900664     1.79900995    -0.15589240
H     -0.71724672     3.05346700    -0.54652995
O      0.12394385     0.05983240     2.79133997
H     -0.09609178     0.89483551     2.82625938
H     -0.61134995    -0.33408452     3.44310313
O      2.83383058    -0.08744978     2.74887250
H      1.93548316    -0.02567624     2.65074490
H      2.91012717    -0.62196125     3.42209050
O      2.72986589     2.72622831     2.66185717
H      2.79917764     1.75940234     2.91069505
H      3.38436869     2.97964800     3.31966139
O     -0.25526484     2.76213519     2.70274037
H      0.79618846     2.58089456     2.77807606
H     -0.34474714     3.56482237     3.25358569
24
water clusters ood_size frame=18
O     -0.01454831     0.14385852    -0.10164036
H      0.93884388     0.01436892     0.04042623
H     -0.29931474    -0.64588335    -0.71206005
O      2.70838146    -0.00246399     0.02609422
H      2.76560937     1.01357243    -0.04105693
H      3.43182247    -0.25255901    -0.62471851
O      2.76546863     2.74402975     0.00848471
H      1.78299404     2.71810618    -0.03446586
H      3.05841853     3.35327233    -0.63268266
O      0.03613768     2.73644416    -0.01059535
H      0.00221446     1.84593953     0.04815871
H     -0.66836819     3.07032338    -0.64784328
O     -0.04693371    -0.01712299     2.68560175
H      0.02169742     0.96795824     2.77816495
H     -0.69357787    -0.24234060     3.35994753
O      2.82604044    -0.08679305     2.82509793
H      1.76601459     0.03180968     2.70401042
H      2.87999529    -0.60293539     3.39999121
O      2.73472502     2.68295404     2.74116258
H      2.64916405     1.78937158     2.71545225
H      3.33781689     2.98745936     3.40709492
O      0.01284053     2.78510565     2.65911053
H      0.91886692     2.70464782     2.73341010
H     -0.22604485     3.38161727     3.36080725
24
water clusters ood_size frame=19
O      0.00540067    -0.00294698     0.01633595
H      0.90363116     0.03198482     0.06305800
H     -0.36007595    -0.62052082    -0.66635507
O      2.72483386    -0.00313983     0.00845505
H      2.79972079     1.03268050    -0.09117895
H      3.43220093    -0.34437583    -0.68902284
O      2.66649941     2.84652753    -0.06430885
H      1.82779201     2.61583000    -0.06326911
H      3.05518916     3.29588964    -0.60373776
O     -0.04666834     2.71613256    -0.12122601
H     -0.00708106     1.82953653     0.01058394
H     -0.76125350     2.92457082    -0.60183669
O      0.03473362    -0.06409748     2.71569669
H      0.04582266     1.00802105     2.66772897
H     -0.72569162    -0.31482306     3.40841212
O      2.72796776    -0.00300698     2.80109630
H      1.77818959     0.07005937     2.78833410
H      2.94947142    -0.65725333     3.36118757
O      2.71469555     2.76077374     2.69387797
H      2.69680818     1.81511295     2.83691082
H      3.47276993     3.03179358     3.39851069
O     -0.00018592     2.70393810     2.77834799
H      0.95212638     2.69183096     2.72701160
H     -0.26664723     3.50431325     3.41338007
24
water clusters ood_size frame=20
O      0.17605667     0.04690305     0.00661721
H      0.89742933    -0.14675462    -0.08443383
H     -0.25446681    -0.62724823    -0.73958756
O      2.76697365     0.03735518     0.09391327
H      2.76872775     1.03063062     0.12188391
H      3.36106014    -0.21109547    -0.57361610
O      2.67589529     2.81606545     0.15355191
H      1.82893016     2.60962715    -0.04445178
H      3.05928514     3.48070210    -0.78420151
O      0.03409955     2.84941836     0.10769496
H     -0.02977891     1.90904639     0.06337267
H     -0.87550810     3.00944955    -0.58295886
O     -0.17618035     0.00374933     2.52599807
H     -0.11747577     0.90299263     2.76739442
H     -0.67532138    -0.20384698     3.42001705
O      2.92851743     0.03475495     2.70645341
H      1.72741408    -0.10105451     2.74412520
H      3.05491668    -0.83561862     3.46410128
O      2.83657195     2.85627694     2.73760124
H      2.72421146     1.76613930     2.48773631
H      3.38125315     2.97617854     3.45568363
O      0.06041401     2.84486664     2.77829475
H      0.94150718     2.66298188     2.76415892
H     -0.26801862     3.31388535     3.49017895
24
water clusters ood_size frame=21
O      0.00796369     0.05393732    -0.00249540
H      0.99156291    -0.02022038     0.04189554
H     -0.24617385    -0.66905311    -0.66454593
O      2.72267751     0.04403524     0.06053495
H      2.72053520     0.98537768    -0.06551521
H      3.38331044    -0.34522185    -0.68489063
O      2.70561485     2.78261092    -0.01041396
H      1.78600903     2.76071730     0.05469333
H      3.01956720     3.30016681    -0.60446783
O     -0.00134341     2.76054797    -0.08901361
H      0.02019540     1.82390386     0.01482795
H     -0.62990775     2.92050438    -0.59002264
O     -0.08558363     0.03314008     2.75269708
H      0.03163449     0.90329608     2.85603309
H     -0.58219393    -0.24013712     3.42451651
O      2.80920479     0.02587153     2.71847612
H      1.69588702     0.03130658     2.77881744
H      3.03321669    -0.59992260     3.38055986
O      2.65027086     2.79139300     2.72804417
H      2.80466738     1.87658009     2.74302510
H      3.42509898     3.08336040     3.34687911
O      0.01460973     2.65435830     2.72896394
H      0.91343181     2.73328415     2.76240310
H     -0.21201822     3.40850525     3.38531457
24
water clusters ood_size frame=22
O     -0.01207794     0.08510467    -0.13041694
H      0.89102305     0.03853673     0.04771047
H     -0.22582570    -0.76557274    -0.77682818
O      2.77825731     0.02375342    -0.03505161
H      2.63265734     0.97072568    -0.03985547
H      3.28623993    -0.30571263    -0.62187871
O      2.75729398     2.66947228    -0.08936801
H      1.78976439     2.69154373     0.02301390
H      2.95919894     3.32144138    -0.56676715
O     -0.01951397     2.82972714     0.04021232
H      0.13167904     1.74547030     0.05863389
H     -0.71201841     2.97740408    -0.73687200
O     -0.01027276    -0.07566542     2.76781464
H     -0.03880358     0.95704189     2.72163056
H     -0.64937673    -0.19721817     3.43152926
O      2.76744306     0.01175852     2.79642706
H      1.83373762    -0.00234689     2.71607502
H      2.92616095    -0.76984480     3.39681550
O      2.88354756     2.85427711     2.61525301
H      2.59645527     1.70076815     2.57629161
H      3.45608325     3.09566999     3.36877820
O      0.01615385     2.69266179     2.82675197
H      0.96462913     2.82163512     2.77022408
H     -0.06835088     3.35458101     3.37211446
24
water clusters ood_size frame=23
O     -0.05175666     0.02745794    -0.11376752
H      0.89931901     0.02021147     0.00579918
H     -0.25861353    -0.73734976    -0.46032996
O      2.92473167     0.06397413     0.13252382
H      2.58671190     0.98203739     0.14904180
H      3.28914021    -0.18681367    -0.85734321
O      2.71924526     2.91340411     0.13718027
H      1.73005507     2.76473323     0.01303505
H      3.03722509     3.56080192    -0.64190130
O     -0.12455274     2.69560437    -0.01053048
H      0.14281240     1.86185908    -0.20470349
H     -0.51737182     2.91630355    -0.65182978
O     -0.11509664     0.10532235     2.68800772
H      0.03398414     0.97354968     2.64799912
H     -0.56545226    -0.22419548     3.50672563
O      2.59104256     0.03128004     2.70675806
H      1.78606073    -0.00716275     2.60497640
H      3.20582050    -0.39695423     3.38166001
O      3.13817970     2.89316750     2.81246847
H      2.84542325     1.74637901     2.71391026
H      3.30450316     3.07444850     3.69743367
O      0.05456019     2.53743358     2.82511955
H      1.07071289     2.66351695     2.93997626
H     -0.26238163     3.54000201     3.48521120
24
water clusters ood_size frame=24
O     -0.02515063    -0.05898637    -0.00176348
H      1.01070556     0.00238546    -0.02203932
H     -0.24531352    -0.62642945    -0.63823710
O      2.76018585    -0.07622247     0.03427003
H      2.77948187     1.00004904     0.12032581
H      3.41303828    -0.22884656    -0.66635387
O      2.83685220     2.67103359     0.04911429
H      1.79812719     2.66435785     0.02448619
H      3.03961294     3.40183805    -0.62209519
O     -0.01385178     2.67415553     0.04832525
H      0.02638088     1.81055865    -0.06884772
H     -0.65702116     3.05830836    -0.65124269
O     -0.09671129     0.01141034     2.76404615
H      0.01523672     0.99066532     2.67981315
H     -0.60440106    -0.32330605     3.44649115
O      2.73136185    -0.04058603     2.72132757
H      1.77829056    -0.03143126     2.68039886
H      2.98060016    -0.64544641     3.44470359
O      2.71236613     2.82697614     2.69839431
H      2.77281479     1.72465722     2.83309999
H      3.40830519     3.04596439     3.41389124
O      0.04669668     2.79575548     2.72179715
H      0.96698266     2.68327856     2.69153875
H     -0.22376362     3.42160289     3.44725013
24
water clusters ood_size frame=25
O      0.19786189    -0.02000737    -0.04967402
H      1.05568442    -0.14034552     0.06311542
H     -0.24095076    -0.72852982    -0.62593548
O      2.89935621     0.06729521    -0.03150330
H      2.75569480     0.87848457     0.03080974
H      3.30672737    -0.28760705    -0.68280388
O      2.61457589     2.66963512     0.05101991
H      1.80567563     2.77744517     0.00310285
H      3.04076321     3.27489410    -0.57307862
O      0.06160708     2.88971939     0.11227418
H     -0.11617946     1.78042293    -0.02732150
H     -0.69576251     2.85297356    -0.61361088
O     -0.03090964    -0.02483925     2.70146840
H      0.05661888     0.90797099     2.91293522
H     -0.54652403    -0.29119619     3.40449447
O      2.81980025    -0.04409888     2.70423202
H      1.90987551     0.03708588     2.74628434
H      2.89676677    -0.62456202     3.40864657
O      2.83932673     2.68957823     2.83427619
H      2.69337978     1.89536133     2.64955507
H      3.43532129     3.02709976     3.57291450
O      0.00554127     2.75773859     2.87697317
H      0.89999185     2.71964926     2.81410121
H     -0.17447711     3.33873483     3.41378911
24
water clusters ood_size frame=26
O     -0.07288235     0.07749111    -0.01778463
H      0.91453582     0.13986705    -0.00329531
H     -0.25190459    -0.61667224    -0.74355969
O      2.61208579     0.00943780     0.02425355
H      2.78369099     0.83307127    -0.12871276
H      3.36585669    -0.22986613    -0.90948704
O      2.72539295     2.68369493    -0.04131632
H      1.59518670     2.84287372    -0.05045999
H      2.94059915     3.39050649    -0.64550148
O     -0.10873562     2.77736282    -0.12940404
H     -0.27266061     1.67704600     0.18814746
H     -0.69238637     2.88438181    -0.65544761
O     -0.23132865     0.23814306     2.76648359
H      0.09813725     0.99656047     2.82941777
H     -0.52509503    -0.22338831     3.40850462
O      2.87076889    -0.12380989     2.68460714
H      1.95247857    -0.22996458     2.60514897
H      2.99259033    -0.74297989     3.52694975
O      2.64926088     2.70222794     2.56573111
H      2.74714659     1.65036996     2.74015503
H      3.56197674     3.06308944     3.22118108
O     -0.12846983     2.81634974     2.79167477
H      0.85797906     2.77008320     2.83733350
H     -0.13267265     3.43684396     3.33064214
24
water clusters ood_size frame=27
O     -0.00080358    -0.03260210    -0.04721058
H      0.87069263     0.02389508    -0.05689894
H     -0.25335555    -0.70660385    -0.65078052
O      2.82973057     0.02059242     0.05210253
H      2.68096720     0.98686968    -0.06035872
H      3.42775781    -0.23971250    -0.62689116
O      2.87671778     2.72667227     0.04851505
H      1.83158343     2.75842892     0.04031293
H      2.97703450     3.35676437    -0.63595193
O      0.04672679     2.70522288     0.02376757
H      0.06470239     1.74395639     0.08662177
H     -0.62331692     3.01795513    -0.61396131
O     -0.01626300    -0.03293144     2.69914271
H     -0.00321763     0.95291153     2.80137054
H     -0.72005729    -0.20888787     3.45053218
O      2.75004685     0.03382564     2.72726846
H      1.83429438     0.02782943     2.73863350
H      3.02496960    -0.67685537     3.43667483
O      2.65917373     2.80265736     2.66245043
H      2.78744856     1.79659783     2.70064492
H      3.47528345     2.92602822     3.32477007
O      0.01032298     2.69354189     2.72456349
H      0.89787873     2.78062442     2.73905206
H     -0.28121661     3.47281313     3.39594020
24
water clusters ood_size frame=28
O      0.01648353     0.00641292    -0.00791966
H      0.99713124     0.03410291    -0.05376379
H     -0.22720154    -0.63413398    -0.60299433
O      2.72783897    -0.04037217    -0.02302428
H      2.81876938     1.06185268    -0.04887883
H      3.45114241    -0.15378573    -0.59756448
O      2.67887577     2.74966781     0.06304068
H      1.81732078     2.68008002    -0.06275892
H      3.01734670     3.41087891    -0.60101609
O      0.10108853     2.59972261     0.00967934
H      0.05711125     1.67566621    -0.03480155
H     -0.65568251     2.98180331    -0.74610128
O     -0.04306825    -0.09160705     2.76118930
H     -0.08172474     1.00462900     2.76451975
H     -0.66029488    -0.15268652     3.52588084
O      2.67396045     0.12620739     2.65289921
H      1.75088962     0.14676331     2.83710876
H      3.12672945    -0.71532253     3.44666271
O      2.82785464     2.74058878     2.71970311
H      2.86655024     1.81631344     2.79058286
H      3.49548355     2.96091681     3.42112487
O     -0.06458225     2.76093977     2.77825622
H      0.89251554     2.77291455     2.72561177
H     -0.26377749     3.46886923     3.45381776
24
water clusters ood_size frame=29
O     -0.09145519    -0.15207972     0.10638911
H      0.91580401     0.13822612    -0.17539396
H     -0.33929260    -0.68368360    -0.65657614
O      2.80831369     0.02244839    -0.12810605
H      2.72234346     0.86051036    -0.22029453
H      3.50858561    -0.18370339    -0.81131289
O      2.62540972     2.83391008     0.03667396
H      1.74976883     2.74218655    -0.07759095
H      3.00865490     3.30975346    -0.61881997
O     -0.06306006     2.79313602    -0.09222938
H      0.23067809     1.86741656    -0.03738029
H     -0.71941887     2.94833021    -0.63337825
O      0.04239860     0.02517115     2.79211237
H     -0.01125463     0.86906428     2.73552315
H     -0.55713047    -0.18557999     3.44888744
O      2.86386769     0.00794691     2.67552329
H      1.82970152     0.13246715     2.70161127
H      3.01852502    -0.63324987     3.35946642
O      2.86854229     2.92333413     2.72433967
H      2.88149135     1.80663983     2.77169546
H      3.55384429     3.04521582     3.38213862
O     -0.00916505     2.74008923     2.78220856
H      0.98517269     2.63441684     2.64635058
H     -0.27452106     3.22890802     3.48619667
24
water clusters ood_size frame=30
O      0.01616384    -0.02466761     0.02717244
H      0.90502266    -0.02848677    -0.08312156
H     -0.27067371    -0.67244901    -0.69699041
O      2.69629456    -0.02141897    -0.04349544
H      2.82004333     0.92859369    -0.03275746
H      3.42404050    -0.28715201    -0.67614463
O      2.73646787     2.77167304    -0.05658322
H      1.74293231     2.71287000     0.01251170
H      2.92413040     3.47450825    -0.60980198
O      0.01445477     2.77320417    -0.03639434
H      0.04473403     1.72844271     0.04710189
H     -0.70199189     3.03045086    -0.69394986
O      0.00226867    -0.02724527     2.65698947
H      0.01370985     0.96900893     2.78326449
H     -0.75991849    -0.28049088     3.41850344
O      2.79838452     0.00413831     2.76809765
H      1.79742624    -0.03496682     2.73775358
H      2.97500624    -0.66637231     3.46176551
O      2.77433324     2.77995328     2.83329613
H      2.71826199     1.86024813     2.76151472
H      3.32412550     3.01220380     3.36934315
O      0.02823538     2.69643994     2.65202524
H      0.96780666     2.76047246     2.84386255
H     -0.27606058     3.42866584     3.42155182
24
water clusters ood_size frame=31
O     -0.00967940    -0.05501529    -0.06798699
H      1.04432503    -0.03416682     0.04454509
H     -0.18411278    -0.76059431    -0.75207240
O      2.68633198     0.01411576     0.06255190
H      2.84645731     0.90347483     0.02521210
H      3.48452069    -0.22041321    -0.77420933
O      2.78635674     2.74057963    -0.05741646
H      1.79023588     2.75864291     0.01969484
H      2.94676412     3.35223162    -0.62728925
O     -0.06686784     2.76845456     0.01331459
H     -0.05100499     1.64248188     0.04377018
H     -0.70836158     3.03823209    -0.57031784
O     -0.06131972    -0.01854531     2.72729652
H     -0.03960937     0.91201722     2.76718946
H     -0.68785553    -0.19592831     3.39467397
O      2.82454527    -0.01292200     2.68887926
H      1.74405772     0.06117733     2.67720292
H      2.87398532    -0.60805157     3.39263617
O      2.80091719     2.83831867     2.80238062
H      2.82912550     1.80752086     2.80320541
H      3.47242687     2.97756368     3.43687757
O     -0.14863451     2.72282107     2.78649340
H      0.99728569     2.82566100     2.77380965
H     -0.24090307     3.23549169     3.37862936
24
water clusters ood_size frame=32
O      0.02849506     0.03792898     0.02335437
H      1.16634811     0.18413617     0.09062952
H     -0.32651925    -0.61307538    -0.66671931
O      2.77358145    -0.08898801    -0.08697364
H      2.80397727     0.86283762    -0.00013218
H      3.49351675    -0.18170155    -0.69647000
O      3.00973069     2.76266387    -0.03164843
H      1.80061758     2.86033017    -0.12219881
H      2.88608244     3.46367711    -0.65803734
O      0.07547756     2.61259983    -0.13998334
H     -0.04042203     1.81170791     0.17495603
H     -0.84871291     2.84238450    -0.78098623
O      0.01016165     0.02278550     2.69132447
H      0.19472466     0.98782073     2.71753316
H     -0.66281869    -0.22425156     3.34992396
O      2.82012854    -0.02225826     2.85505075
H      1.60736158     0.11641950     2.80797167
H      3.20667941    -0.63746752     3.40317873
O      2.85255800     2.70950813     2.87714795
H      2.82229177     1.95340774     2.67754391
H      3.39627147     3.00135626     3.46308326
O      0.03199520     2.62908212     2.72166571
H      1.02521071     2.82401540     2.79810673
H     -0.13330869     3.24551860     3.49406844
24
water clusters ood_size frame=33
O      0.02046000     0.03158525     0.05540451
H      1.03882545     0.03351162    -0.04966577
H     -0.24871779    -0.57932977    -0.61806429
O      2.77055825    -0.01009383    -0.03300554
H      2.76955670     0.99741959    -0.01910055
H      3.37695573    -0.15380605    -0.60858954
O      2.79573850     2.87088201    -0.02999905
H      1.89356917     2.72825680    -0.00694014
H      3.02874647     3.39490860    -0.62656028
O     -0.04220464     2.73501385     0.00080584
H     -0.03325604     1.75930330    -0.06514947
H     -0.63279729     2.91650246    -0.64398922
O      0.04059598    -0.09034536     2.74542465
H     -0.03206894     0.98265880     2.74164392
H     -0.68881795    -0.13578484     3.31510080
O      2.82099173     0.06183873     2.76146116
H      1.74678082    -0.01527384     2.78170919
H      3.04111363    -0.63046720     3.35161903
O      2.72848926     2.81997922     2.73620430
H      2.77450407     1.81322894     2.80572309
H      3.45590785     2.95462811     3.41175313
O      0.07395624     2.69895009     2.80300370
H      0.86377453     2.70332791     2.75749264
H     -0.19931680     3.39290182     3.44260933
24
water clusters ood_size frame=34
O      0.07108329     0.06886088     0.02712555
H      0.97430499     0.02505271     0.02715969
H     -0.27469081    -0.67196623    -0.68317665
O      2.78319596    -0.02724417     0.02226078
H      2.64591299     0.92728851    -0.07407057
H      3.44087194    -0.17628869    -0.62832141
O      2.83478877     2.82700720     0.09902596
H      1.82898627     2.64255246    -0.01260531
H      2.95397248     3.42948742    -0.61586091
O      0.06439608     2.73208928    -0.06635363
H      0.07589507     1.71024928    -0.03219904
H     -0.52144706     3.11894011    -0.73325735
O     -0.00937091    -0.12369109     2.67148136
H      0.04152756     1.02914343     2.67885909
H     -0.56263537    -0.25190356     3.44799480
O      2.81236962     0.10880268     2.73004007
H      1.70905487     0.03455670     2.76419639
H      2.90025403    -0.67286883     3.50021715
O      2.83143290     2.68386761     2.78795191
H      2.64623410     1.72021896     2.85783207
H      3.39906095     2.97323826     3.23421238
O      0.10377880     2.70306906     2.75320774
H      1.03496501     2.83678964     2.78440781
H     -0.24256862     3.41896533     3.51660564
24
water clusters ood_size frame=35
O      0.06280782    -0.04412965    -0.12615931
H      0.91587998     0.05753586    -0.26854548
H     -0.42391339    -0.68684355    -0.61588268
O      2.67593004     0.08755411    -0.01250834
H      2.83851513     1.05763863    -0.05178339
H      3.36422619    -0.41856433    -0.66509448
O      2.88722132     2.86186051     0.04461203
H      1.73681977     2.82331220     0.04328182
H      3.14542556     3.38687312    -0.56354393
O     -0.14210630     2.82159975    -0.01572333
H      0.03106559     1.87471153    -0.07878132
H     -0.74282563     2.98071450    -0.80474864
O     -0.02558194     0.03337087     2.77780919
H     -0.00224805     1.00652806     2.59364909
H     -0.62348867    -0.27484252     3.43460923
O      2.97144569     0.06806526     2.83304700
H      1.78625929     0.03079398     2.64416854
H      3.11804786    -0.68140473     3.62547580
O      2.75506559     2.49957595     2.92846679
H      2.71858112     1.69618931     2.65062845
H      3.49088570     2.96304516     3.43142251
O      0.05596175     2.66250405     2.91108672
H      1.12050871     2.75017908     2.74244037
H     -0.34641545     3.63650551     3.38068922
24
water clusters ood_size frame=36
O      0.00096097     0.03771799     0.02357848
H      0.95259035     0.05465956     0.00278333
H     -0.28670765    -0.62055581    -0.60171378
O      2.67766184    -0.00590190     0.03728558
H      2.86852805     0.90575502    -0.03139823
H      3.35796254    -0.26684141    -0.64332625
O      2.68161946     2.70193721     0.06483217
H      1.79580363     2.68695667    -0.03715438
H      2.96487963     3.41070483    -0.61760895
O      0.03160009     2.63731278     0.04891112
H      0.04910926     1.82965116    -0.01395265
H     -0.58401869     2.96169450    -0.64018690
O      0.05744999     0.02153586     2.75534310
H     -0.04863929     0.93713705     2.77119154
H     -0.64996162    -0.32466342     3.45581305
O      2.75140798     0.02846038     2.81750364
H      1.80667470     0.05114979     2.70313832
H      2.98390454    -0.64563517     3.40164242
O      2.78253582     2.71808656     2.70095252
H      2.77647565     1.76918279     2.75701287
H      3.42989697     3.01660504     3.36566113
O     -0.02467170     2.72295601     2.75044439
H      0.88596549     2.65561753     2.72457589
H     -0.27289286     3.52702382     3.43018387
24
water clusters ood_size frame=37
O     -0.02052247    -0.00208477     0.00452037
H      1.10068064    -0.08686928    -0.05617235
H     -0.19707642    -0.70283070    -0.68280024
O      2.80997962    -0.03402027    -0.10478552
H      2.69748313     0.94516170    -0.02364326
H      3.29905947    -0.26976284    -0.71299424
O      2.71411499     2.68539977     0.00890219
H      1.85816131     2.82994064     0.13979900
H      2.97962790     3.46980976    -0.58279241
O     -0.05175784     2.69435376    -0.00512279
H      0.01033768     1.79264804    -0.06826975
H     -0.74447036     2.94258687    -0.55197541
O      0.04352127     0.09076919     2.84868833
H     -0.01418895     0.92425998     2.74810560
H     -0.66497052    -0.17970424     3.31871524
O      2.70648786     0.08376651     2.81865013
H      1.86032451    -0.12559849     2.79777966
H      3.05202653    -0.77149374     3.45955598
O      2.79560950     2.65806123     2.72728221
H      2.59624970     1.85439487     2.94269082
H      3.27389110     3.00222403     3.42547748
O     -0.01330193     2.67174145     2.69307748
H      0.84589238     2.73257790     2.74194377
H     -0.21740329     3.40786404     3.41524126
24
water clusters ood_size frame=38
O     -0.03328483    -0.00313211     0.00054768
H      1.03635228     0.10912383     0.02770787
H     -0.36629912    -0.60106753    -0.80913081
O      2.72834658     0.06393909    -0.09360300
H      2.71609648     1.05436978    -0.00975852
H      3.45774960    -0.47870992    -0.78460957
O      2.72095490     2.84843863     0.00997521
H      1.68903171     2.76372589     0.07084192
H      2.97413520     3.44867105    -0.63894459
O      0.08293901     2.75813492     0.11768739
H     -0.03847536     1.86448683     0.03379168
H     -0.72404638     2.99791798    -0.62313521
O      0.09622629    -0.18987398     2.65134947
H     -0.06933180     1.01655204     2.85252441
H     -0.70193355    -0.27174230     3.40512511
O      2.63643354     0.17726286     2.89439960
H      1.84158090     0.06403770     2.63032390
H      3.23291835    -0.67094878     3.45942138
O      2.77068003     2.76685849     2.84075510
H      2.64731691     1.70235310     2.74942437
H      3.40681007     3.14480882     3.51278040
O      0.03095283     2.56734087     2.83004848
H      0.91344318     2.79180280     2.71138001
H     -0.32185992     3.19455458     3.57609709
24
water clusters ood_size frame=39
O      0.07969055     0.09090415    -0.08250702
H      0.98010853    -0.02617463     0.01790417
H     -0.15972043    -0.69987630    -0.63754682
O      2.75962417     0.00867109     0.03846328
H      2.65214098     1.09373083    -0.03436864
H      3.46899438    -0.20704674    -0.58923981
O      2.67455098     2.72487978     0.03417035
H      1.78153976     2.80768605    -0.04394943
H      2.94121105     3.45526757    -0.62794522
O      0.00672958     2.77656569    -0.01621749
H      0.01270370     1.78143176     0.05020887
H     -0.59452247     2.93838879    -0.63774324
O     -0.04384896     0.08038137     2.76925337
H     -0.06091268     0.87540008     2.78482120
H     -0.59592422    -0.16985364     3.42774279
O      2.70829676    -0.03855387     2.84468584
H      1.90757416    -0.00914098     2.79281185
H      2.96146516    -0.66566224     3.42844002
O      2.72560174     2.68449826     2.65364120
H      2.72697882     1.73289990     2.77771618
H      3.39237232     2.95651917     3.37538663
O     -0.06146760     2.75154367     2.70888854
H      1.04464671     2.68334823     2.74324209
H     -0.10149116     3.47074076     3.41369696
24
water clusters ood_size frame=40
O      0.09477842    -0.01371604     0.11211991
H      0.96060300    -0.09624001    -0.01593665
H     -0.38018052    -0.62882397    -0.54146463
O      2.70368041    -0.05063883    -0.07678759
H      2.84608418     0.96372675    -0.02209829
H      3.49742984    -0.21570756    -0.66176478
O      2.73794746     2.69090869    -0.04051890
H      1.80152995     2.92317298    -0.02844690
H      2.86289964     3.34627160    -0.59244228
O      0.03471916     2.74225985     0.00640895
H     -0.03903873     1.67904657     0.04313211
H     -0.60598957     3.06682922    -0.67430737
O      0.02202858    -0.03855618     2.80347179
H     -0.02546382     0.81073670     2.73371806
H     -0.63232772    -0.21524709     3.42976281
O      2.76687787    -0.03184086     2.67107944
H      1.64295935    -0.07186498     2.71226740
H      3.05410755    -0.59284444     3.46602354
O      2.64710605     2.62210746     2.67587513
H      2.76716407     1.74569427     2.80563589
H      3.34600422     2.91148118     3.38041558
O      0.02370313     2.70309253     2.75156406
H      0.90946175     2.67517584     2.80902474
H     -0.19563132     3.44529030     3.36078119
24
water clusters ood_size frame=41
O      0.17937252    -0.18557300    -0.21693033
H      0.89638725    -0.06952795     0.06064740
H     -0.28948404    -0.53114681    -0.73160269
O      2.81920383     0.06555188     0.03177514
H      2.63962157     0.86753733     0.02588191
H      3.53786091    -0.10106677    -0.59580409
O      2.82650351     2.73074821    -0.12316721
H      1.85984594     2.85018790    -0.12775340
H      3.05791774     3.35778396    -0.56129974
O     -0.05270710     2.81286918    -0.13050024
H     -0.13357826     1.85004835    -0.03654513
H     -0.66674123     3.18541467    -0.55598766
O      0.01267008    -0.04287349     2.76685729
H     -0.07014479     1.02070691     2.89882491
H     -0.52746671    -0.27173793     3.47164944
O      2.79413167    -0.06614530     2.66480579
H      1.98112623     0.08700404     2.94193122
H      3.03312744    -0.49256041     3.36956620
O      2.73781917     2.79807957     2.77591145
H      2.77643753     1.85580432     2.80676554
H      3.45212198     3.14251703     3.37088684
O      0.03047200     2.78015293     2.68599175
H      1.00397177     2.66340916     2.69035432
H     -0.26641363     3.37713958     3.51452129
24
water clusters ood_size frame=42
O     -0.02421857     0.05143847    -0.01224468
H      0.91232346     0.06862670     0.00889391
H     -0.25283735    -0.68370028    -0.60571519
O      2.80640750     0.08864276    -0.08583412
H      2.70241748     0.92181626    -0.00929432
H      3.38641145    -0.24929303    -0.55842225
O      2.65280844     2.74574938     0.00959240
H      1.82069707     2.69219116    -0.06384024
H      2.98494406     3.47678715    -0.60176853
O      0.07063320     2.63931703    -0.08404509
H     -0.01251107     1.76938159     0.01556185
H     -0.66706279     2.95215406    -0.62214153
O     -0.00068897     0.12702349     2.67442206
H      0.06600844     0.96715845     2.72697899
H     -0.72280292    -0.29052958     3.45010836
O      2.73162209    -0.05718532     2.71213680
H      1.81615976    -0.07032155     2.65085839
H      3.03360011    -0.61905247     3.37555148
O      2.75259177     2.71696413     2.82870132
H      2.77389235     1.72959134     2.68978899
H      3.32744479     2.87660955     3.39929139
O      0.01758810     2.77358606     2.74003838
H      0.97879897     2.76100065     2.74957092
H     -0.17620202     3.44112116     3.48664844
24
water clusters ood_size frame=43
O      0.09615575     0.07588837    -0.10378640
H      0.84992697     0.07130191     0.02178921
H     -0.40889918    -0.65206409    -0.63084886
O      2.79765540    -0.06232982     0.16779635
H      2.79002828     1.14094652    -0.01289568
H      3.28337053    -0.13026086    -0.68579239
O      2.64010170     2.84053548    -0.09957549
H      1.69895034     2.68091723     0.06848796
H      3.02954932     3.40544333    -0.69089822
O     -0.01173683     2.80682470    -0.00556280
H      0.01203443     1.89347448     0.03316381
H     -0.65303714     2.89542075    -0.57474126
O     -0.02258032     0.08308324     2.67823605
H     -0.07201604     1.00853967     2.79008063
H     -0.67574675    -0.35124388     3.42028885
O      2.81470691     0.14163737     2.72707792
H      1.84040781    -0.05307444     2.76798930
H      2.97137404    -0.58502605     3.42562165
O      2.72394276     2.72598332     2.78138638
H      2.82761227     1.69563762     2.83023285
H      3.48731526     3.02241510     3.36858044
O     -0.04030748     2.77228448     2.82220411
H      1.11782864     2.76663058     2.76455226
H     -0.17969200     3.46804663     3.31312802
24
water clusters ood_size frame=44
O      0.12908268    -0.02096552    -0.15908873
H      0.98772275     0.11780622     0.00079440
H     -0.23318524    -0.52912615    -0.71316847
O      2.62912317     0.04924439    -0.08339179
H      2.84579535     0.99939745     0.12421119
H      3.42486130    -0.19610543    -0.62559216
O      2.68115135     2.57589931    -0.14672140
H      1.73214804     2.63286177     0.08590295
H      3.14472750     3.45543865    -0.74517680
O     -0.17181296     2.69757303    -0.06850808
H      0.13904151     1.71970214     0.10980697
H     -0.67290330     3.07494955    -0.59909485
O     -0.09240657     0.13612619     2.69595654
H     -0.03194898     0.94025280     2.81253054
H     -0.82063298    -0.03861202     3.32702370
O      2.85823297     0.21922539     2.64957064
H      1.91133045     0.02838764     2.60742823
H      2.88438575    -0.65387275     3.36052151
O      2.66729166     2.81736559     2.75681882
H      2.73288302     1.72919671     2.80551446
H      3.45374900     2.91182315     3.36671459
O     -0.12536630     2.59976337     2.72029490
H      0.86031166     2.76665391     2.59440243
H     -0.18939575     3.39354196     3.35529610
24
water clusters ood_size frame=45
O     -0.06078822     0.02653017     0.08688443
H      0.96063006     0.01632444     0.03964920
H     -0.19152068    -0.68489011    -0.67900618
O      2.83550285     0.06011598    -0.12981787
H      2.65125873     0.96444625    -0.02081001
H      3.41953661    -0.21592083    -0.60381229
O      2.72523605     2.73768593    -0.04144763
H      1.75991539     2.63811908     0.06031843
H      2.97227303     3.46931382    -0.60415255
O      0.07231741     2.75920441    -0.05523237
H      0.03011454     1.82244097    -0.04672236
H     -0.60888492     3.09015328    -0.63069909
O     -0.01731024    -0.01672827     2.69432952
H      0.04414257     1.00178542     2.82715488
H     -0.61093046    -0.14384913     3.40133663
O      2.74479803     0.04460439     2.75689502
H      1.80152618     0.04033117     2.80200135
H      2.98948642    -0.68337818     3.48696565
O      2.76821310     2.71751779     2.73594107
H      2.86592899     1.88112474     2.73459143
H      3.36368681     3.02678353     3.40521571
O      0.01057110     2.82090052     2.78190165
H      0.95781531     2.76562535     2.68761547
H     -0.20444267     3.40891470     3.44684201
24
water clusters ood_size frame=46
O      0.05795637     0.08802528    -0.05372948
H      1.00461407     0.10949915    -0.01410251
H     -0.29158320    -0.76532448    -0.69473298
O      2.73278564     0.09638333    -0.19207565
H      2.79580099     0.84204399    -0.01691198
H      3.39570193    -0.24532426    -0.65483442
O      2.71413960     2.75906241    -0.09450455
H      1.65103489     2.72249192     0.09805686
H      3.05040148     3.47359032    -0.74264216
O      0.05829336     2.68492054     0.06170610
H      0.04574716     1.68331977    -0.11433958
H     -0.61019700     2.90764612    -0.72152975
O      0.06611827     0.07997277     2.67636702
H     -0.09366574     0.96273033     2.66083826
H     -0.72631188    -0.24541422     3.36018627
O      2.66638172     0.04200227     2.72561317
H      1.79071326    -0.00665146     2.73875113
H      2.97200598    -0.68923318     3.42925629
O      2.79108313     2.81219757     2.67914997
H      2.69223646     1.83141553     2.80986983
H      3.29980276     2.98440492     3.43528291
O     -0.10042585     2.72935751     2.75977340
H      0.92618664     2.83246819     2.79875276
H     -0.19748203     3.39877738     3.33235488
24
water clusters ood_size frame=47
O     -0.02247050    -0.08032474    -0.03125770
H      0.89197351     0.18940915    -0.11786202
H     -0.25686421    -0.53651953    -0.65917068
O      2.77052165    -0.02329631    -0.06397846
H      2.78259514     1.00804757     0.01150679
H      3.44928179    -0.15816321    -0.78611213
O      2.80774759     2.84795979    -0.03021541
H      1.80353377     2.90690588     0.06909442
H      3.06698344     3.34929262    -0.75692006
O      0.06777283     2.77731944     0.06496357
H      0.08366107     1.79238669     0.10626353
H     -0.64081921     3.00668867    -0.76043452
O      0.11622886     0.10274904     2.85988898
H     -0.02122637     0.96107237     2.74587081
H     -0.74352224    -0.29165140     3.59824357
O      2.87286862    -0.10215402     2.61319172
H      1.70023953    -0.02786239     2.65630643
H      2.99886591    -0.44362823     3.52812316
O      2.55336495     2.74750972     2.74009749
H      2.64586665     1.91982412     2.85085221
H      3.50104980     3.00309509     3.24340699
O     -0.01125098     2.80486191     2.93384930
H      0.91331162     2.81795411     2.75492654
H     -0.20525441     3.46460249     3.41936569
24
water clusters ood_size frame=48
O      0.04668416    -0.05232377     0.00363670
H      0.95477393    -0.06978514    -0.01740426
H     -0.28339415    -0.67209194    -0.61055174
O      2.74168734     0.00221752     0.10676249
H      2.75966572     0.95885841     0.03143770
H      3.48412434    -0.23872125    -0.61879910
O      2.73386810     2.77476805     0.08271454
H      1.70635198     2.75086152    -0.00123220
H      3.02858234     3.43396641    -0.66919230
O     -0.00527007     2.80663568     0.07470779
H     -0.07964925     1.74474758    -0.02457253
H     -0.62299612     3.03026674    -0.59687809
O     -0.00550086    -0.00558052     2.74864379
H      0.00497036     0.95784704     2.77057096
H     -0.61582731    -0.27657133     3.43807045
O      2.71335645     0.04213143     2.83411621
H      1.81381027     0.00140381     2.81861566
H      2.95971113    -0.63825374     3.35363615
O      2.70092044     2.73873695     2.72414607
H      2.71635440     1.78805173     2.70108974
H      3.44214589     3.01834616     3.35818199
O     -0.04328167     2.70880554     2.83590930
H      0.90305526     2.79552598     2.74409603
H     -0.23690510     3.40250186     3.37965308
24
water clusters ood_size frame=49
O     -0.01196866    -0.10738051    -0.09886947
H      1.01909712    -0.05107820    -0.12114017
H     -0.13540306    -0.77705420    -0.60526539
O      2.66611223     0.03153906     0.11610086
H      2.63294525     1.20061065     0.05245574
H      3.24484521    -0.20552601    -0.66482227
O      2.64321675     2.67040512    -0.06524543
H      1.79541368     2.80109013     0.07554606
H      3.01413191     3.28945685    -0.74092033
O     -0.00272783     2.73604064     0.02946388
H      0.06720767     1.83205052     0.01611027
H     -0.67917383     2.91693038    -0.78445918
O      0.03338975     0.04183064     2.79098804
H      0.06675802     0.89951002     2.88574227
H     -0.74356813    -0.26833662     3.48078859
O      2.76669245    -0.02489669     2.79234531
H      1.76979918     0.11099713     2.73535070
H      3.02719482    -0.68380015     3.30092239
O      2.72900615     2.70739270     2.73163812
H      2.66993567     1.63765351     2.72209156
H      3.36519262     3.03776243     3.43267031
O     -0.02293962     2.76263510     2.82303949
H      0.89757035     2.64580304     2.71579838
H     -0.23992544     3.34003818     3.44855893
24
water clusters ood_size frame=50
O     -0.13712110    -0.00796793    -0.05040873
H      0.98701662     0.00571612     0.01246257
H     -0.20503008    -0.75993972    -0.72030396
O      2.69215232    -0.02935201    -0.13170567
H      2.72038015     0.73647121    -0.02216194
H      3.33466973    -0.11823225    -0.71963133
O      2.77716515     2.79139861     0.03716464
H      1.55412632     2.76538588     0.06449488
H      3.05175114     3.45194699    -0.77645395
O      0.10383001     2.73118722     0.10554338
H     -0.14710279     1.72649422    -0.05909411
H     -0.54590363     2.97553111    -0.66556840
O      0.23977810     0.02942120     2.74903485
H     -0.13331864     1.09050014     2.85846839
H     -0.80860657    -0.33268515     3.22941277
O      2.55853142    -0.12850266     2.71338709
H      1.80252758     0.10649026     2.79554457
H      2.90389107    -0.69481469     3.30615886
O      2.92482877     2.65300530     2.74871182
H      2.67905440     1.74005530     2.87555839
H      3.37097160     3.01634605     3.44835876
O      0.15224069     2.75411934     2.73993330
H      0.89668003     2.87960159     2.88948893
H     -0.29686845     3.49853067     3.51390794
24
water clusters ood_size frame=51
O      0.08103394     0.04611732    -0.01664279
H      0.96339415    -0.09710408    -0.03565849
H     -0.31338619    -0.66749842    -0.65942481
O      2.66640896    -0.06310369     0.00631612
H      2.81636460     0.93765356    -0.07312979
H      3.43442530    -0.23917273    -0.63609922
O      2.72253937     2.74101069    -0.01425080
H      1.72590096     2.80256192    -0.05499415
H      3.02190174     3.37016164    -0.76093150
O     -0.10849246     2.73176813    -0.02747030
H     -0.05326274     1.82723738    -0.00390010
H     -0.62899518     3.00690220    -0.72852732
O     -0.00786126     0.01619424     2.75645354
H      0.07715022     1.00574123     2.74743203
H     -0.57312967    -0.24961088     3.47078913
O      2.66674960     0.04633060     2.72881260
H      1.78735700    -0.01122659     2.76882184
H      2.98796163    -0.61793757     3.40848960
O      2.76635146     2.81363153     2.71463359
H      2.76754282     1.73549849     2.75066054
H      3.27752369     3.00736066     3.41500438
O      0.00999388     2.73541814     2.74744158
H      0.91080911     2.71268415     2.71452121
H     -0.25715609     3.50838300     3.34930030
24
water clusters ood_size frame=52
O      0.09599679    -0.01907797     0.03605753
H      0.95266682     0.01051521     0.07967238
H     -0.20856348    -0.70757134    -0.70171122
O      2.83718333     0.07590401     0.05378276
H      2.79879549     1.01726629    -0.02383417
H      3.51073525    -0.36752211    -0.53694521
O      2.71446386     2.68407922     0.16979701
H      1.89178296     2.74021474    -0.05566585
H      2.95975608     3.25184226    -0.68080925
O      0.00031861     2.89590424     0.14052385
H     -0.00031122     1.77710163    -0.06086195
H     -0.66986187     3.00719068    -0.69746320
O     -0.04551041    -0.04035816     2.76659153
H      0.02605945     0.87142267     2.76724014
H     -0.57596767    -0.36397048     3.46857221
O      2.70020665     0.02131259     2.65363368
H      1.73179567     0.04667470     2.79299438
H      3.00422484    -0.60569929     3.47108512
O      2.80634553     2.80887653     2.76784962
H      2.70661221     1.78420762     2.61081138
H      3.48586321     2.88260106     3.36163348
O     -0.03935049     2.75756960     2.82752059
H      1.05902359     2.84560832     2.98468687
H     -0.27155442     3.46665742     3.40437450
24
water clusters ood_size frame=53
O      0.14224080    -0.04840391     0.12721444
H      0.98513386     0.20461755     0.07220432
H     -0.20491820    -0.65316973    -0.61966218
O      2.72839873    -0.16188833     0.14165976
H      2.77034143     1.02772354    -0.06615007
H      3.37834312    -0.16156575    -0.69150753
O      2.73168630     2.70797230     0.13531643
H      1.58923753     2.52810319    -0.01009984
H      2.93964909     3.44687513    -0.69034971
O      0.05674408     2.84060475    -0.01452230
H      0.05078258     1.77526476    -0.09493449
H     -0.73753760     3.07556881    -0.72831923
O     -0.08125688    -0.03216724     2.86011536
H     -0.01056365     0.94643513     2.61025148
H     -0.71140105    -0.29854175     3.26811112
O      2.63567715    -0.07914684     2.80094841
H      1.74618864     0.01287220     2.71027274
H      2.84765233    -0.47399223     3.48495990
O      2.81674041     2.73021443     2.70515835
H      2.89413412     1.89441491     2.71896879
H      3.32208442     3.01725913     3.45592771
O     -0.01242168     2.85757521     2.81536971
H      0.99342152     2.68887813     2.64893986
H     -0.33188543     3.30606813     3.38961243
24
water clusters ood_size frame=54
O     -0.03382296    -0.01971782    -0.05893714
H      0.86610174    -0.05132041     0.02266633
H     -0.19938264    -0.66872032    -0.62297971
O      2.76437194     0.03050504    -0.10282113
H      2.73867928     1.01437115     0.01373824
H      3.42238643    -0.18670085    -0.57095504
O      2.74244001     2.84615461     0.04478271
H      1.80912288     2.82121103    -0.00045583
H      3.03574114     3.29139059    -0.63553174
O     -0.08942000     2.66139251     0.05495861
H     -0.06610687     1.76800724    -0.02821172
H     -0.69479337     2.95127884    -0.71558933
O      0.01584056    -0.07340784     2.77884872
H      0.01022099     0.98204776     2.77947573
H     -0.64571435    -0.20705588     3.44060566
O      2.66139042     0.07234303     2.78041563
H      1.74315868    -0.04698240     2.77000133
H      2.96354749    -0.60636450     3.41548361
O      2.76271551     2.75682083     2.79090694
H      2.72064524     1.80801019     2.75660813
H      3.40054821     3.04913347     3.35527932
O      0.07885246     2.67337840     2.69031436
H      0.98663901     2.74570743     2.81951607
H     -0.26380103     3.39842309     3.49854560
24
water clusters ood_size frame=55
O     -0.06216031     0.07738286     0.00611045
H      0.83369049     0.00125404    -0.00326148
H     -0.17479329    -0.63536370    -0.61447501
O      2.66139714    -0.08023938    -0.09178325
H      2.67233540     0.90563083    -0.08370644
H      3.40900795    -0.25516864    -0.46662467
O      2.72563585     2.81092468     0.11552699
H      1.77074471     2.79727764     0.02391417
H      3.04385476     3.35735788    -0.74475385
O      0.08477005     2.87336794    -0.03291253
H     -0.07793295     1.88112580     0.02427734
H     -0.73073862     3.14238936    -0.60102165
O      0.10499690    -0.01694570     2.83642649
H     -0.14172532     1.00915578     2.81270165
H     -0.68015549    -0.15310469     3.29222273
O      2.84397994     0.01535237     2.63116034
H      1.86995648     0.15308421     2.79704160
H      2.93668074    -0.67537407     3.32071565
O      2.62392616     2.80277380     2.72109438
H      2.83815172     1.79752540     2.75019836
H      3.43157723     2.92040584     3.44728169
O     -0.02023215     2.80258549     2.72686954
H      1.00275560     2.65931091     2.84206161
H     -0.14132742     3.35684442     3.47764531
24
water clusters ood_size frame=56
O     -0.12983295    -0.03973534    -0.03735331
H      0.87627409    -0.08576230     0.01255297
H     -0.26638207    -0.66375991    -0.59160632
O      2.62512881    -0.13011479     0.02261239
H      2.70572833     1.04826144     0.00984259
H      3.37791823    -0.29167052    -0.56342395
O      2.61427642     2.57325639     0.19068515
H      1.84304403     2.70309551    -0.11845241
H      2.92620991     3.31919302    -0.62243538
O      0.03013326     2.62496981    -0.29414068
H      0.05839017     1.76982068    -0.07988892
H     -0.78978313     2.79140283    -0.53511583
O     -0.05500733     0.15591463     2.68061011
H      0.22685893     0.94941468     2.65000432
H     -0.65098574    -0.18717827     3.47278569
O      2.70206390     0.12789263     2.57163109
H      1.87626541     0.05206001     2.65841094
H      2.98515500    -0.58897035     3.19638372
O      2.75227538     2.60419838     2.66026801
H      2.75204488     1.85196057     2.83935072
H      3.44297420     3.01814127     3.43810654
O      0.03584582     2.76855398     2.75432772
H      0.93119160     2.66492580     2.65257068
H     -0.30416975     3.52095817     3.33917803
24
water clusters ood_size frame=57
O     -0.02894981     0.06103663     0.02057919
H      0.90282947    -0.01964061    -0.02191770
H     -0.16535756    -0.65503319    -0.63812695
O      2.72284449    -0.05454940     0.01652164
H      2.71061292     0.93395700     0.00925402
H      3.44763377    -0.24343680    -0.67990281
O      2.75707042     2.69360676    -0.02730294
H      1.97352761     2.76856991    -0.01255710
H      3.09522730     3.41091330    -0.61656492
O     -0.04951767     2.70170264     0.06136591
H     -0.01245085     1.82935084     0.00756490
H     -0.60428122     3.02146950    -0.77188538
O      0.02147112     0.05721709     2.77930262
H     -0.03353236     0.97303015     2.75595925
H     -0.63066861    -0.18795028     3.43451524
O      2.69387519    -0.07247532     2.66354619
H      1.83600402    -0.04252473     2.74353823
H      2.96380276    -0.62009974     3.46385900
O      2.78086335     2.78955272     2.71729524
H      2.75458016     1.79362642     2.76291324
H      3.42683300     2.96902224     3.30329195
O     -0.03526739     2.80593359     2.74068683
H      0.92475796     2.85074929     2.78164392
H     -0.24758047     3.34828515     3.41523734
24
water clusters ood_size frame=58
O      0.12634660     0.00818375     0.02490339
H      0.98861702    -0.06582725    -0.06040925
H     -0.32563386    -0.63624334    -0.57165804
O      2.71618839    -0.10014858    -0.00379094
H      2.78522381     1.02890488    -0.11363947
H      3.40208330    -0.24371931    -0.72617094
O      2.87123510     2.71044633    -0.03324924
H      1.64110649     2.76223770    -0.04741533
H      2.95699403     3.32907101    -0.61605407
O      0.00056907     2.73330909    -0.03521603
H      0.02088082     1.86956393    -0.02894451
H     -0.67012110     3.05196080    -0.62097323
O      0.01377588    -0.01551062     2.72582055
H     -0.14502073     1.00786298     2.81906076
H     -0.74623126    -0.11891272     3.40359697
O      2.74932001     0.04121243     2.68511613
H      1.76094236    -0.01074430     2.75259910
H      3.12312269    -0.64619564     3.50683955
O      2.75482013     2.69867858     2.67907246
H      2.73963529     1.72929160     2.84285636
H      3.43953724     3.08386383     3.43451617
O     -0.10740498     2.65560229     2.76025225
H      1.01548350     2.75401542     2.76114025
H     -0.24284437     3.45049745     3.49172056
24
water clusters ood_size frame=59
O      0.04512798    -0.04440455     0.00726953
H      1.06224368     0.03131172    -0.02790793
H     -0.11233708    -0.72299447    -0.67229436
O      2.82172888     0.04358865     0.08683346
H      2.74102753     1.02644827    -0.02107397
H      3.29425545    -0.13772285    -0.75607713
O      2.75300712     2.75342876     0.02359860
H      1.94332064     2.62389937    -0.11248201
H      3.02155789     3.32304491    -0.62405122
O     -0.00642516     2.79362591    -0.04747515
H      0.03527591     1.91810673     0.09328483
H     -0.83268953     3.13076606    -0.81413244
O      0.06734755    -0.16083502     2.77222971
H     -0.03127196     0.80571831     2.94607897
H     -0.78507467     0.00711458     3.43972174
O      2.73928615     0.01499577     2.55573057
H      1.92315736    -0.15028457     2.85287839
H      2.73137202    -0.75726489     3.42450585
O      2.62565630     2.66690087     2.77288922
H      2.78254227     1.77178869     2.72357855
H      3.42079669     3.08410518     3.40905044
O     -0.09011548     2.61414325     2.87926311
H      0.93207196     2.73793989     2.78607679
H     -0.25142792     3.38265244     3.42946586
24
water clusters ood_size frame=60
O     -0.04645795     0.01591665     0.10422429
H      0.89557307    -0.02680025     0.05412754
H     -0.21169725    -0.61102806    -0.67116740
O      2.70111989     0.09894692     0.02008511
H      2.79259599     0.89879596     0.06837141
H      3.45229768    -0.23293003    -0.71046501
O      2.70581788     2.83800392    -0.04777163
H      1.86773403     2.72691313     0.05799979
H      3.03036361     3.40211116    -0.57074350
O      0.00341327     2.81666396     0.01801652
H      0.04280550     1.78905363     0.07273224
H     -0.71112771     2.94098655    -0.66772770
O      0.00832508    -0.03140722     2.67435993
H     -0.05088958     1.07063258     2.80386023
H     -0.67765713    -0.26789542     3.38085969
O      2.82083240    -0.09455105     2.73653854
H      1.78505804     0.02610722     2.79787787
H      2.95546297    -0.60267141     3.40411146
O      2.69728412     2.73904471     2.77981838
H      2.78475475     1.79521385     2.72923315
H      3.42601950     3.06876593     3.47522528
O     -0.00242559     2.78287117     2.81007061
H      0.97037230     2.71387569     2.71341609
H     -0.24011728     3.45604235     3.38673495
24
water clusters ood_size frame=61
O     -0.01749014    -0.05479553     0.00004011
H      0.97312337    -0.09007632     0.04441572
H     -0.26231930    -0.77931802    -0.59937682
O      2.78479952     0.06020922    -0.08353655
H      2.72500992     1.00901087    -0.05354872
H      3.40011937    -0.24483580    -0.67709300
O      2.84178560     2.68242963    -0.01820650
H      1.65678668     2.74548190    -0.02724411
H      2.95041774     3.45882126    -0.61938829
O      0.00460746     2.67591352     0.02311833
H      0.05370120     1.78196758    -0.01574026
H     -0.59400011     3.04248312    -0.70934643
O     -0.11236301     0.03955621     2.68466228
H      0.06978174     0.85669252     2.67627880
H     -0.64595164    -0.13510360     3.53175674
O      2.73316004    -0.03183662     2.79614530
H      1.77421050     0.03322591     2.78184847
H      2.99338591    -0.71083075     3.39235535
O      2.82579042     2.61833957     2.58733793
H      2.78136165     1.78631062     2.57507408
H      3.49310502     2.98799288     3.30089734
O     -0.08589360     2.76891778     2.85125041
H      0.89028030     2.71137958     2.59758714
H     -0.02438874     3.41620867     3.45757444
24
water clusters ood_size frame=62
O      0.03494590    -0.13275007     0.01048883
H      1.04148892    -0.05953814    -0.07136352
H     -0.26239798    -0.71007978    -0.64488738
O      2.60662906     0.02849546    -0.06199521
H      2.70518043     0.87254867     0.02112742
H      3.46903966    -0.14425029    -0.69171774
O      2.86243045     2.80108320    -0.11766797
H      1.88755156     2.90555866     0.15057630
H      3.09368846     3.56962270    -0.53792732
O      0.10541928     2.71045443    -0.06061786
H     -0.10131131     1.78405117     0.10880273
H     -0.67035957     2.97385943    -0.75494188
O      0.07823178    -0.07483981     2.74530448
H      0.01610898     0.89028929     2.85924859
H     -0.58948696    -0.37797665     3.44374944
O      2.78751312    -0.04945205     2.79344878
H      1.76423280    -0.03383461     2.76943727
H      3.05521252    -0.82774653     3.36565125
O      2.77353601     2.67973020     2.81148170
H      2.69833831     1.83405513     2.83960045
H      3.34121191     3.07011235     3.37484195
O      0.13682562     2.75194052     2.62340516
H      0.93383271     2.77021228     2.82471015
H     -0.26618064     3.37011317     3.35344425
24
water clusters ood_size frame=63
O      0.02441857     0.03509089     0.03450561
H      0.94797828    -0.02970507     0.09548837
H     -0.17696560    -0.61391153    -0.64466190
O      2.78556291     0.07129845    -0.00266095
H      2.77677400     0.97632886    -0.14365489
H      3.44959005    -0.24629524    -0.69986192
O      2.72600632     2.79012280     0.05718004
H      1.79076389     2.69870056    -0.01005723
H      3.02567434     3.41984963    -0.65384905
O     -0.00528448     2.74763668     0.01470609
H     -0.02709615     1.74305386     0.00289672
H     -0.63678935     3.01033837    -0.64707660
O      0.01036029     0.01986523     2.69733429
H     -0.00992775     0.98207767     2.73521408
H     -0.59572580    -0.31373804     3.29808751
O      2.69608646     0.03256290     2.80444180
H      1.83483474     0.02326363     2.83935701
H      2.96381735    -0.67248521     3.37580672
O      2.78398609     2.80746123     2.80023559
H      2.84873375     1.79010462     2.81020316
H      3.45411978     2.98244561     3.31216593
O     -0.03804951     2.76952940     2.67187353
H      0.93606326     2.68294275     2.80773017
H     -0.28441216     3.38481381     3.36579462
24
water clusters ood_size frame=64
O      0.10385029    -0.11031978    -0.00464204
H      0.90127070    -0.00688594     0.10883837
H     -0.18105753    -0.53456964    -0.72914988
O      2.72289927     0.03963197    -0.09813242
H      2.86582139     0.87550540     0.08897341
H      3.47760474    -0.33204678    -0.75105943
O      2.58172153     2.65272776     0.02119686
H      1.78919516     2.82269572    -0.02791783
H      3.02075636     3.51580250    -0.56853723
O      0.09222747     2.68594289     0.02409186
H     -0.11267489     1.75623653    -0.00874675
H     -0.61894165     3.03614601    -0.69451878
O      0.02313096     0.04785204     2.68550884
H     -0.01150864     0.84007724     2.79704649
H     -0.69963113    -0.16984433     3.31739438
O      2.74715696    -0.04395741     2.87438997
H      1.81538919    -0.02919402     2.68684422
H      3.00565395    -0.59956595     3.44020136
O      2.81244201     2.73394441     2.70523091
H      2.66601568     1.74157633     2.74523718
H      3.30773721     3.07382277     3.46847565
O      0.00349005     2.73956222     2.73262527
H      0.87072242     2.76626298     2.77518295
H     -0.22967003     3.42638080     3.36098326
24
water clusters ood_size frame=65
O     -0.13236908     0.08881336     0.08797593
H      0.89637578     0.04836130     0.06004888
H     -0.26280660    -0.50953948    -0.80398106
O      2.92693687     0.03994959    -0.03712115
H      2.72097715     0.97621296     0.09189067
H      3.45106160    -0.44876013    -0.83473672
O      2.79096911     2.71437406    -0.01549866
H      1.82625345     2.83845922     0.06429881
H      2.89648469     3.23598841    -0.68604494
O      0.04201206     2.74514349    -0.09415165
H      0.02558270     1.77527313     0.00769388
H     -0.61287906     2.86336930    -0.69635013
O      0.08871650     0.08731191     2.90473799
H      0.01587250     1.03211209     2.72197648
H     -0.53712671    -0.17212428     3.38858551
O      2.59047718    -0.00333949     2.64069466
H      1.83917553    -0.01936888     2.67792898
H      3.01186371    -0.69657271     3.33530261
O      2.65945298     2.61435077     2.82263817
H      2.65150009     1.72863515     2.73823550
H      3.37862425     3.17876797     3.45386803
O     -0.14173842     2.83699521     2.92172200
H      0.90395108     2.73197982     2.81296008
H     -0.07157567     3.41281934     3.46320875
24
water clusters ood_size frame=66
O      0.00650641     0.01114228    -0.01117775
H      0.95591455     0.04768413     0.06458331
H     -0.26769664    -0.58687587    -0.65152520
O      2.83008588    -0.03653639    -0.03346928
H      2.84563383     0.90249728    -0.08192234
H      3.45109778    -0.26231870    -0.65213953
O      2.69090428     2.72267576    -0.07733587
H      1.89123982     2.70474008    -0.03644053
H      3.00439282     3.41902294    -0.70254075
O     -0.01961698     2.73524637     0.02399432
H     -0.00659761     1.83991665    -0.05165636
H     -0.68567013     2.98938797    -0.62667250
O     -0.04298433     0.01858044     2.79043425
H     -0.06220231     0.91402689     2.66385252
H     -0.68482549    -0.21921327     3.37150310
O      2.90647153     0.05628579     2.77378427
H      1.87238402     0.08336448     2.73160645
H      2.93772944    -0.67338777     3.40095932
O      2.78705512     2.81822845     2.79248815
H      2.67283375     1.89163217     2.71505180
H      3.35434307     2.88443105     3.41014374
O     -0.11147306     2.68950866     2.73947722
H      0.95613017     2.67041849     2.79576718
H     -0.25974283     3.47396278     3.43028882
24
water clusters ood_size frame=67
O     -0.04011622     0.05601005    -0.00727330
H      0.85623777     0.10073839     0.06519385
H     -0.19950835    -0.68791203    -0.70814630
O      2.76486732     0.03480793    -0.12523608
H      2.78243762     1.07961397    -0.08127931
H      3.35250680    -0.27176402    -0.53738858
O      2.69758306     2.78410182    -0.00522700
H      1.80639084     2.67693990    -0.01860546
H      3.02720644     3.41786415    -0.50563797
O     -0.05136230     2.73075435     0.11615901
H     -0.02133432     1.73620437     0.13769814
H     -0.61292632     2.93939126    -0.57995136
O      0.15358548     0.01765478     2.84314253
H      0.11358610     0.86779749     2.81086379
H     -0.66663310    -0.20741755     3.38009153
O      2.75319276     0.09223216     2.83186445
H      1.74577016     0.02346864     2.82938865
H      2.96003112    -0.66030639     3.27666818
O      2.86299959     2.71617586     2.66695500
H      2.75499240     1.84914588     2.75310048
H      3.45254190     2.96359604     3.47735525
O     -0.13094833     2.76508887     2.70501516
H      0.93292299     2.74996022     2.84910380
H     -0.18766796     3.41226681     3.38936171
24
water clusters ood_size frame=68
O     -0.03500698     0.03967197    -0.06452476
H      0.97250519    -0.10407240     0.01393028
H     -0.46004634    -0.59164248    -0.72567417
O      2.86925311     0.09411564     0.14548135
H      2.71345099     0.93599945     0.07797827
H      3.38805124    -0.28054673    -0.75351676
O      2.86930709     2.55761870    -0.17376909
H      1.76015211     2.87037369    -0.06274845
H      2.93912278     3.56112205    -0.74329016
O     -0.01049800     2.69538443     0.03045419
H      0.00695681     1.79217183     0.00064914
H     -0.54917284     3.02032157    -0.59436120
O      0.02279742     0.16599971     2.78161759
H     -0.17051277     0.99122730     2.67283589
H     -0.78137238    -0.33524778     3.39834710
O      2.81959171    -0.04776551     2.75326931
H      1.72679072     0.09837304     2.79950213
H      3.07131559    -0.55438618     3.40957787
O      2.78413823     2.75537699     2.69093580
H      2.78401912     1.65673114     2.62917686
H      3.41962462     2.93361179     3.42894287
O     -0.01466728     2.74581416     2.67201355
H      1.03132950     2.75930397     2.68975895
H     -0.11678080     3.41658385     3.67121688
24
water clusters ood_size frame=69
O      0.00648638     0.03547646    -0.01201705
H      0.92633024     0.03249975    -0.04459850
H     -0.23782672    -0.66566315    -0.67280347
O      2.81141183     0.02547298    -0.02481176
H      2.65213498     0.92268951     0.05320527
H      3.37826449    -0.25568515    -0.69372496
O      2.71348370     2.83047920    -0.03604973
H      1.75391447     2.83697528     0.13374888
H      3.02216474     3.39639333    -0.72311550
O      0.09754100     2.71797169    -0.01166017
H     -0.04461787     1.76218410     0.00539405
H     -0.76368994     2.95810444    -0.71841745
O      0.01743264     0.07690473     2.73941270
H     -0.10420712     0.86587188     2.72233327
H     -0.59353942    -0.19030914     3.41514155
O      2.76137179     0.00256245     2.63727249
H      1.74582436     0.02401496     2.76912034
H      3.08524835    -0.73664625     3.48301644
O      2.77015340     2.70081603     2.72128341
H      2.82226766     1.87591606     2.78650343
H      3.44382485     2.94798873     3.38760617
O      0.09795244     2.76804442     2.75545313
H      0.99083358     2.87338331     2.80102631
H     -0.24392824     3.44930647     3.38294184
24
water clusters ood_size frame=70
O     -0.02906512     0.00201558    -0.06410541
H      0.92230641     0.06680246     0.04104093
H     -0.22650448    -0.54458890    -0.64511545
O      2.73181154     0.10866981    -0.01081630
H      2.71009522     0.90154861     0.04452621
H      3.34545825    -0.21956552    -0.65283381
O      2.76706996     2.83015127    -0.02595122
H      1.78669059     2.92935105    -0.07090106
H      2.96251758     3.36948846    -0.72522135
O     -0.11379164     2.71053489     0.08969962
H      0.08737285     1.83108303     0.03881154
H     -0.53723518     2.96324140    -0.69721810
O      0.04095307    -0.03938590     2.86347698
H     -0.05688952     1.07658219     2.68508356
H     -0.67119003    -0.22558891     3.40916443
O      2.72397160     0.08431234     2.74728024
H      1.79564360    -0.09531075     2.82401066
H      2.88028167    -0.44412955     3.42896224
O      2.69305833     2.69938775     2.70844724
H      2.65024149     1.87860904     2.79570420
H      3.42388654     2.97855620     3.48041819
O     -0.03766972     2.83791787     2.73875806
H      0.95752697     2.74068904     2.83813935
H     -0.25652688     3.44031102     3.44615603
24
water clusters ood_size frame=71
O     -0.09806574     0.02226694     0.17722547
H      0.98349705    -0.00541013     0.09635175
H     -0.06773870    -0.62339273    -0.74283201
O      2.72099174    -0.03692942     0.21750428
H      2.78850783     1.00712938    -0.02270214
H      3.44948046    -0.27275123    -0.50741048
O      2.68879634     2.76129832     0.15674934
H      1.74150940     2.83751283    -0.06067196
H      2.92470262     3.38750234    -0.66802744
O      0.10106654     2.83140189    -0.00674903
H     -0.03571172     1.69327874    -0.15942155
H     -0.51740987     3.02041019    -0.50133087
O      0.11495204     0.00084910     2.64894417
H     -0.12234237     0.90054418     2.65523922
H     -0.48671008    -0.25502028     3.51597126
O      2.80995040    -0.14881827     2.71003825
H      1.71119763    -0.23441738     2.75476000
H      2.96169843    -0.64646401     3.33873498
O      2.84892096     2.81464734     2.71193096
H      2.87742798     1.65729918     2.73139346
H      3.41282236     3.01614675     3.60669809
O      0.07298584     2.64243000     2.73082848
H      0.88759467     3.00613470     2.76823915
H     -0.31287070     3.44692237     3.54933649
24
water clusters ood_size frame=72
O     -0.06897005    -0.02869874    -0.03226859
H      0.90623492    -0.02468079    -0.01820876
H     -0.25091711    -0.72887469    -0.64413812
O      2.77558824    -0.04235929     0.05202475
H      2.74910952     0.90379189     0.04380337
H      3.42560475    -0.25150834    -0.63467466
O      2.87695142     2.75592630    -0.03395663
H      1.78701507     2.83460477    -0.15865460
H      3.03671292     3.46063363    -0.66998907
O      0.11469892     2.76002386     0.05593769
H      0.04968572     1.84789508     0.02233290
H     -0.64181615     2.97199341    -0.72209738
O      0.01050357    -0.07417161     2.77067784
H      0.03210070     1.00654348     2.74680995
H     -0.71835658    -0.28510278     3.39184528
O      2.67522940     0.08215060     2.71564890
H      1.83101118     0.01684040     2.73730831
H      2.97246830    -0.64905369     3.39362975
O      2.71702530     2.83490153     2.77597993
H      2.80041688     1.76601936     2.70035424
H      3.37257726     3.01610834     3.33678616
O      0.05321068     2.77986369     2.72924602
H      1.03788895     2.82859016     2.69578485
H     -0.25786527     3.48145167     3.49759404
24
water clusters ood_size frame=73
O     -0.05690315    -0.09204513     0.05747112
H      0.92737927     0.16015335    -0.02206321
H     -0.23051798    -0.81401521    -0.69109037
O      2.80646804     0.04030680    -0.01034493
H      2.74987037     1.02788228    -0.01026608
H      3.45299078    -0.21902785    -0.60946076
O      2.70874940     2.72452295    -0.07058259
H      1.73716258     2.68314629     0.02063191
H      2.94705792     3.35571884    -0.65820508
O     -0.03335942     2.63610306     0.11512512
H     -0.06966453     1.85510644    -0.09111021
H     -0.50618694     2.92446059    -0.60249258
O      0.00683938     0.06508147     2.76672308
H      0.02600301     0.95490781     2.77841097
H     -0.62541863    -0.24154607     3.35162770
O      2.76898981     0.01573451     2.57956576
H      1.68784960     0.10957702     2.61100292
H      2.97590066    -0.62768151     3.32138143
O      2.83869769     2.75191812     2.70592166
H      2.87676895     1.75327041     2.70935879
H      3.38661635     3.07824407     3.25184525
O      0.06773977     2.72935517     2.82106298
H      0.91553873     2.65941479     2.69988397
H     -0.31744064     3.42686737     3.35940137
24
water clusters ood_size frame=74
O      0.03899758    -0.04651839     0.06090879
H      0.95309635     0.09175226     0.07806351
H     -0.29825385    -0.59835382    -0.62440839
O      2.88784018    -0.13657459     0.14163131
H      2.88148324     0.92863180    -0.06402908
H      3.30754519    -0.41945805    -0.65635708
O      2.65889078     2.72156290     0.05247489
H      1.79580143     2.92346660     0.02805190
H      3.06185840     3.53599583    -0.70162130
O     -0.06015669     2.85957029     0.09420192
H     -0.00677722     1.84258889    -0.04447533
H     -0.58872280     3.04227841    -0.68806153
O      0.07670060    -0.09238070     2.72720855
H      0.06744253     0.91384799     2.90703205
H     -0.62566087    -0.44708380     3.43332080
O      2.70237429     0.15865330     2.71089493
H      1.80038477    -0.13091884     2.72827867
H      2.92979659    -0.72110821     3.24591672
O      2.56234241     2.84073896     2.86507151
H      2.67734492     1.76409667     2.80994809
H      3.47981974     3.01473015     3.54793578
O      0.00511069     2.87691792     2.75082970
H      0.85618187     2.82922307     2.85229676
H     -0.19510471     3.58172115     3.51984502
24
water clusters ood_size frame=75
O     -0.03302637    -0.04262927    -0.09618309
H      0.80160598    -0.02499732    -0.11958515
H     -0.20291120    -0.69062959    -0.61954659
O      2.72570424    -0.00842187    -0.00594913
H      2.74287928     0.97982758     0.04032654
H      3.34852207    -0.28676503    -0.62557067
O      2.78871885     2.83555082     0.04323429
H      1.76908398     2.76867350     0.11577188
H      2.91217311     3.42962846    -0.59612594
O     -0.02296468     2.75781165     0.05776856
H     -0.03751201     1.83068860    -0.04776897
H     -0.68504308     3.03699470    -0.64379973
O      0.00548904    -0.07562161     2.82888769
H      0.05552883     0.93364430     2.73352552
H     -0.69594665    -0.23173021     3.41289396
O      2.80955992     0.04968154     2.70809007
H      1.79603559    -0.02351519     2.76108202
H      2.95587512    -0.63458702     3.36715294
O      2.68148656     2.77954807     2.76137105
H      2.77975654     1.80802105     2.73624737
H      3.39612696     3.00384366     3.55581636
O      0.02786879     2.78225201     2.79942005
H      0.95805921     2.78356547     2.75625321
H     -0.28263356     3.44402414     3.43970990
24
water clusters ood_size frame=76
O      0.12643085     0.03899038    -0.00970587
H      0.89788414     0.00172048    -0.06950328
H     -0.26199331    -0.62184278    -0.63938601
O      2.80322628    -0.03405795     0.19336829
H      2.71587658     0.89851552    -0.02009096
H      3.38268566    -0.31460742    -0.54204567
O      2.72468639     2.76452312     0.01373340
H      1.78644503     2.79361731    -0.06636156
H      2.85843021     3.42227110    -0.62836193
O      0.01524937     2.79399204    -0.05258504
H      0.19178036     1.78631161     0.01757261
H     -0.59144024     2.92916432    -0.74825527
O     -0.05686787    -0.07465465     2.70475870
H      0.00756588     1.08821545     2.72797559
H     -0.65173081    -0.32001544     3.40390019
O      2.72046156    -0.03417116     2.72921955
H      1.76177387    -0.01332841     2.66995833
H      2.93133064    -0.69799883     3.38282554
O      2.91544257     2.85119380     2.67016821
H      2.73128354     1.77621676     2.82957766
H      3.42976822     3.00041040     3.52937195
O     -0.06470843     2.78767507     2.62250558
H      0.96321241     2.68607590     2.78842912
H     -0.35057526     3.55331412     3.43711769
24
water clusters ood_size frame=77
O     -0.03563863    -0.11685811     0.11556331
H      1.01274275    -0.08015247     0.17723033
H     -0.26564516    -0.79576605    -0.64518898
O      2.70352650    -0.05070645    -0.07655735
H      2.91778892     0.74020209    -0.08995783
H      3.40584284    -0.26145208    -0.63344354
O      2.92810964     3.01109942     0.11617083
H      1.76962641     2.76671751    -0.01013885
H      3.01583776     3.25658837    -0.76306100
O      0.06877576     2.71043834     0.02309787
H     -0.07332994     1.84921688    -0.07278581
H     -0.62444993     3.06376590    -0.60431306
O     -0.00671895     0.04331166     2.75523268
H      0.09735206     0.95649463     2.66715578
H     -0.75505734    -0.16756502     3.24446664
O      2.76185614     0.10147934     2.79258128
H      1.57389904    -0.06093895     2.93816618
H      2.96912015    -0.57183731     3.43876724
O      2.81387641     2.63218848     2.56946857
H      2.52990549     1.82632235     2.71708308
H      3.61968426     2.96450456     3.40409308
O     -0.06773545     2.95700688     2.69802241
H      0.96760780     2.63866255     2.53528697
H     -0.16491167     3.41594673     3.40358820
24
water clusters ood_size frame=78
O     -0.01597992    -0.00833735     0.08504693
H      1.05422248    -0.01502799     0.07342106
H     -0.23731858    -0.67992115    -0.69528103
O      2.81250657    -0.03633706    -0.06208076
H      2.78755600     0.97699714     0.07315936
H      3.50998105    -0.29883674    -0.61463692
O      2.70926025     2.72639067    -0.04588188
H      1.82663042     2.68814553    -0.09027455
H      2.99768656     3.38648143    -0.59626377
O      0.00523747     2.74507907    -0.06374720
H      0.00533376     1.78755360     0.02370194
H     -0.63332623     3.04694459    -0.67855186
O     -0.10948460    -0.06606731     2.83024218
H     -0.00587498     0.91668781     2.77922291
H     -0.75445609    -0.27319047     3.52000907
O      2.72245495    -0.02701690     2.69588350
H      1.76021725    -0.04727102     2.74397934
H      3.03768004    -0.67024315     3.33951635
O      2.67512957     2.73929822     2.76008462
H      2.77963161     1.74660175     2.77828027
H      3.52178311     2.99871318     3.46847851
O      0.02288913     2.67894079     2.75755825
H      1.07121233     2.69562652     2.77336475
H     -0.31356211     3.42360710     3.36580296
24
water clusters ood_size frame=79
O      0.10492326     0.06241927     0.07191566
H      0.91414824    -0.02443965    -0.09790261
H     -0.19329505    -0.63556001    -0.61568855
O      2.70704753     0.00552768    -0.02284904
H      2.76239092     0.95779621     0.00946290
H      3.36689153    -0.14556160    -0.55346672
O      2.74275450     2.76833932     0.12204736
H      1.75152751     2.73681191    -0.00708087
H      3.01820276     3.41361338    -0.63042843
O     -0.09928910     2.81324304    -0.03566622
H     -0.03968297     1.76682881     0.06611578
H     -0.60662059     2.86353241    -0.71293968
O     -0.02976888     0.02728195     2.80128591
H     -0.00341861     0.91073851     2.87070397
H     -0.53538555    -0.19490277     3.41791137
O      2.72727464    -0.00497043     2.66812661
H      1.75214062    -0.02262273     2.84894548
H      2.98197550    -0.67259364     3.46615810
O      2.72125833     2.71710091     2.77087546
H      2.76121936     1.75844352     2.84182420
H      3.34095225     3.01599008     3.21946780
O      0.07517752     2.87701306     2.71572975
H      1.05936282     2.82746663     2.71499207
H     -0.21348334     3.28180610     3.41317323
24
water clusters ood_size frame=80
O      0.16832715     0.11316893    -0.00772784
H      0.97290679    -0.07389684    -0.15364879
H     -0.25033944    -0.57394667    -0.62709062
O      2.93760519     0.07499437    -0.06719817
H      2.85588088     0.99357209    -0.21471727
H      3.33711297    -0.26841138    -0.63173718
O      2.84152538     2.77655901    -0.06227851
H      1.75435389     2.73549404    -0.02213532
H      2.93149860     3.52460199    -0.71176309
O      0.03800865     2.68369449    -0.04786734
H     -0.06432481     1.74855742    -0.11689916
H     -0.78231628     2.77700519    -0.85147012
O      0.04697138     0.05179968     2.72198573
H     -0.14104010     0.88850976     2.60357650
H     -0.76539918    -0.31120028     3.38106436
O      2.82367181    -0.11903949     2.69870633
H      1.88891231     0.15779573     2.84149430
H      3.02335766    -0.53027827     3.33338739
O      2.85185831     2.63535097     2.64154897
H      2.86488938     1.78228081     2.66786844
H      3.56619908     2.92413876     3.41472493
O     -0.18117364     2.78694536     2.75120757
H      0.89406814     2.87407169     2.75801507
H     -0.22771688     3.32498372     3.44763282
24
water clusters ood_size frame=81
O      0.02935798     0.00047548     0.02173137
H      0.97913840     0.00236469     0.00916591
H     -0.15490390    -0.65192552    -0.61398731
O      2.69149949     0.01928554     0.05418977
H      2.80056454     0.82697819    -0.01966448
H      3.42652871    -0.28365002    -0.62469851
O      2.81850316     2.72521551    -0.04157535
H      1.75432023     2.76460983     0.02667091
H      2.90652504     3.37281002    -0.68015819
O      0.11311380     2.78174409    -0.10432106
H     -0.00692051     1.74798092     0.00339384
H     -0.64086006     2.96071866    -0.65599492
O     -0.03529954    -0.05239119     2.68683894
H     -0.01688349     0.96247548     2.69010769
H     -0.65781613    -0.16450485     3.43324626
O      2.68390427     0.02784092     2.73874288
H      1.81615384     0.01610719     2.78742507
H      2.92370965    -0.69969181     3.41118276
O      2.77993465     2.81633889     2.77292139
H      2.83782734     1.81406712     2.78567111
H      3.39914831     2.95597962     3.37871265
O      0.05575079     2.83732274     2.72835021
H      0.93231299     2.78256784     2.73363432
H     -0.16876777     3.33311349     3.36197751
24
water clusters ood_size frame=82
O      0.04530812     0.09018884    -0.02508695
H      1.03928050     0.05617651    -0.01173954
H     -0.27439073    -0.58047545    -0.65266630
O      2.77623043    -0.08811986    -0.02989615
H      2.58606394     0.97631287     0.01220125
H      3.38310065    -0.30286870    -0.64144230
O      2.64679021     2.70715871    -0.03105946
H      1.86304672     2.83538491    -0.04265297
H      2.98600972     3.38180226    -0.68020434
O     -0.03892872     2.66659728    -0.17532944
H      0.05667550     1.79765922    -0.05633888
H     -0.65427117     2.96054756    -0.65916790
O      0.06846548    -0.12856872     2.76849108
H      0.03831970     0.91628483     2.81403636
H     -0.78538721    -0.20036028     3.37650786
O      2.74625403    -0.04115816     2.75211532
H      1.77871902    -0.04166383     2.68500598
H      3.02920155    -0.63561814     3.26729494
O      2.80588315     2.70128404     2.74200456
H      2.73110732     1.79881605     2.61720869
H      3.40956617     2.93052754     3.40614548
O      0.03725366     2.78807744     2.79632933
H      0.85286285     2.72545837     2.71189565
H     -0.27649483     3.46990637     3.40738804
24
water clusters ood_size frame=83
O      0.04171743     0.07993127     0.03665361
H      1.04834036    -0.15963610     0.08720981
H     -0.11342152    -0.45816279    -0.77299309
O      2.82107021     0.12238743     0.09362320
H      2.64472419     1.12066449    -0.08440401
H      3.34451093    -0.08119262    -0.66356012
O      2.61835272     2.85788868     0.02676028
H      1.77000260     2.90599976    -0.19343727
H      2.98414513     3.38733714    -0.73857464
O     -0.05793332     2.69933868     0.11018528
H      0.04303161     1.64125110     0.00010965
H     -0.63193438     3.14233974    -0.67980109
O      0.01249458     0.00328337     2.78915095
H      0.06032590     0.94525661     2.74712812
H     -0.71570779    -0.17400879     3.52373374
O      2.67936256    -0.06418910     2.83298372
H      1.89213694    -0.09839794     2.69669498
H      3.08208264    -0.67037186     3.41426783
O      2.54949036     2.81843563     2.75013575
H      2.77175932     1.94050362     2.83344931
H      3.39189981     2.99812203     3.42775798
O     -0.01595010     2.82352809     2.70757415
H      0.99359463     2.72819497     2.86888131
H     -0.27964496     3.38424476     3.30758368
24
water clusters ood_size frame=84
O     -0.02890140    -0.01285107     0.00677046
H      0.95035950     0.04237171     0.04810538
H     -0.27419874    -0.65058390    -0.60310758
O      2.78117371    -0.08697162     0.02732529
H      2.73022639     0.94079248    -0.02545837
H      3.39533868    -0.27381858    -0.67274774
O      2.81649642     2.75994514    -0.05717235
H      1.74510786     2.76067370     0.00329507
H      2.96203725     3.40911230    -0.62041034
O     -0.03688334     2.64944094    -0.08269383
H     -0.00988378     1.87678892     0.10291004
H     -0.62059224     2.99320347    -0.57676956
O      0.03415153     0.01195766     2.78418707
H      0.01703733     0.95574966     2.75636643
H     -0.64125525    -0.24343412     3.35370917
O      2.72418994     0.02730575     2.75314339
H      1.74293879     0.02934047     2.73147004
H      3.03360087    -0.68393506     3.44961438
O      2.76033729     2.70373931     2.76762261
H      2.84816165     1.72271148     2.76968580
H      3.41990647     2.95224015     3.32112510
O      0.03873061     2.65797444     2.69536159
H      0.96544762     2.80302537     2.77441537
H     -0.26124866     3.44916264     3.41994794
24
water clusters ood_size frame=85
O     -0.00866557    -0.09845844     0.16432964
H      0.89880249    -0.11358687     0.15196603
H     -0.15657234    -0.61886585    -0.62471171
O      2.72980388    -0.00300669     0.18802603
H      2.80352378     1.02317456    -0.07845054
H      3.34096258    -0.23895657    -0.61955683
O      2.76039572     2.63472812     0.02966764
H      1.84150283     2.80199792     0.03247039
H      2.99139255     3.44768705    -0.69338372
O     -0.03570895     2.75668668     0.01108808
H     -0.00860407     1.80676064     0.00930934
H     -0.81866089     3.10097614    -0.68064762
O      0.01670144    -0.08248458     2.68629282
H      0.04481940     0.96648421     2.62595748
H     -0.67240091    -0.17727831     3.35915544
O      2.66835149     0.04633899     2.60426028
H      1.83923192    -0.14187487     2.76650542
H      2.90040927    -0.72680031     3.37573100
O      2.63161868     2.78919387     2.75729151
H      2.76900192     1.78223302     2.80148716
H      3.47306392     3.03818195     3.48499970
O     -0.13434531     2.71396838     2.61833416
H      0.84671695     2.80578928     2.82964754
H     -0.33598540     3.36032060     3.43506624
24
water clusters ood_size frame=86
O      0.08749951    -0.24368904     0.16878283
H      0.91368356     0.12143416     0.08027348
H     -0.33055095    -0.53335961    -0.64271633
O      2.80194344     0.08352129    -0.07407347
H      2.61243066     0.82086345    -0.05578274
H      3.44525723    -0.35701002    -0.55453811
O      2.74244338     2.59160044    -0.02691508
H      1.95216047     2.79671187    -0.03541480
H      2.90208497     3.46476584    -0.60374523
O      0.07362382     2.85124947     0.04369554
H      0.00574943     1.69900448    -0.01067553
H     -0.75098757     2.84489150    -0.51467636
O     -0.01024130     0.02171755     2.71108690
H     -0.05141291     0.87173477     2.74631514
H     -0.58360425    -0.19189240     3.34977261
O      2.71531248    -0.18025298     2.67157909
H      1.69280515    -0.12091594     2.79650314
H      3.13806604    -0.61397249     3.27820726
O      2.84651752     2.78290397     2.83570750
H      2.76932019     1.78075728     2.75805496
H      3.51741002     2.94199372     3.46359014
O      0.03361924     2.78834062     2.81774299
H      1.03886334     2.69345036     2.78705470
H     -0.21556031     3.51983216     3.44464713
24
water clusters ood_size frame=87
O     -0.00281605    -0.00028928     0.06879084
H      1.02725355    -0.04149116     0.03193074
H     -0.26381002    -0.66624562    -0.64306798
O      2.70966135     0.02442891     0.05222501
H      2.77203682     0.83353599    -0.05593155
H      3.40248896    -0.24158468    -0.69961963
O      2.73140011     2.76010679    -0.02177860
H      1.74563074     2.82434009    -0.06242738
H      2.93570477     3.45560466    -0.61848244
O      0.01227257     2.78607502    -0.04380536
H     -0.00816256     1.82965689     0.04444571
H     -0.63511531     2.98378648    -0.56568511
O     -0.06694486     0.07397628     2.76816724
H     -0.00799530     0.95143749     2.76943843
H     -0.60247768    -0.19413155     3.38262495
O      2.76557329     0.00579406     2.76431904
H      1.79393140    -0.00777377     2.70125788
H      2.88159784    -0.63145214     3.34026041
O      2.67014857     2.71773617     2.83321794
H      2.84876321     1.90298947     2.68895625
H      3.35772356     2.96769916     3.44383129
O     -0.07404722     2.74928922     2.69626661
H      1.03268916     2.78673153     2.78079072
H     -0.21058845     3.36122632     3.40478657
24
water clusters ood_size frame=88
O      0.16675686    -0.03997971     0.05203014
H      1.05380908    -0.09302156    -0.02546506
H     -0.18586884    -0.65980805    -0.74584384
O      2.65339795     0.00634059     0.03343673
H      2.69348611     0.85106393    -0.07737076
H      3.51215603    -0.24160731    -0.57433734
O      2.72319058     2.75516013     0.09300286
H      1.72901622     2.74532513     0.01656151
H      3.15220840     3.27657845    -0.57789319
O     -0.03756212     2.72693163     0.07994442
H     -0.00556917     1.82975755    -0.05757217
H     -0.70977918     2.98879192    -0.50066292
O     -0.01880691    -0.04487267     2.67450627
H      0.01156178     0.97375922     2.65758428
H     -0.80253579    -0.21400573     3.34814623
O      2.73764123     0.01037726     2.83851841
H      1.79942892     0.02924175     2.85040117
H      3.09905965    -0.66666158     3.42220245
O      2.76873053     2.79167514     2.68334981
H      2.74534399     1.70874746     2.77270847
H      3.38288858     2.90573111     3.35028851
O      0.00193316     2.72340704     2.78908898
H      1.03795732     2.80925561     2.82019780
H     -0.29533653     3.36259636     3.38151507
24
water clusters ood_size frame=89
O      0.00407491    -0.02461261    -0.05332931
H      0.95900648    -0.02683886     0.15902157
H     -0.23750973    -0.72123300    -0.65140723
O      2.69507464    -0.06341968     0.14879104
H      2.79351000     0.97265700     0.10557406
H      3.45232145    -0.26631317    -0.81537632
O      2.55410637     2.78220706     0.05744695
H      1.78898064     2.70475353     0.04305014
H      2.98947030     3.41878152    -0.55234507
O      0.00224998     2.78788866     0.00476119
H     -0.17424991     1.82503471     0.07669731
H     -0.47921936     2.98599666    -0.63182242
O      0.04755713    -0.04153890     2.76180422
H      0.01576052     1.02321548     2.78208657
H     -0.74253996    -0.30609244     3.47849001
O      2.82862275     0.05635438     2.84965399
H      1.75133934    -0.01836781     2.73410135
H      2.88539096    -0.72561246     3.50499660
O      2.87284359     2.85997582     2.70418296
H      2.77391090     1.85599254     2.54041799
H      3.45507619     3.13221599     3.43373659
O      0.03635265     2.81228774     2.78590943
H      0.86603871     2.77918373     2.67538620
H     -0.19180737     3.17552748     3.47751458
24
water clusters ood_size frame=90
O      0.07402785     0.08981278    -0.00822725
H      1.00236492    -0.04045427    -0.01112937
H     -0.21996390    -0.69466128    -0.75706871
O      2.71955500     0.01737302    -0.06068381
H      2.81341319     0.95328831     0.03836000
H      3.38610787    -0.18356693    -0.57328795
O      2.80374129     2.71730488     0.12937232
H      1.80448159     2.77165984     0.06796696
H      3.00551508     3.36224798    -0.66322054
O     -0.06685787     2.74782541    -0.01387827
H      0.06866178     1.74004464    -0.02340717
H     -0.67195794     2.98679517    -0.59159694
O      0.14576586    -0.03474477     2.63414756
H     -0.00059687     0.93648446     2.78443709
H     -0.72261340    -0.16432847     3.34185114
O      2.73297874     0.11886132     2.74758191
H      1.81273944     0.03264238     2.78137507
H      3.03362486    -0.76030685     3.33308624
O      2.77766138     2.72844282     2.76853243
H      2.71914297     1.77928675     2.69932712
H      3.34242096     2.93155418     3.39594848
O      0.01018772     2.73407495     2.78361890
H      0.90762527     2.81228302     2.73204021
H     -0.25452274     3.41497167     3.38839007
24
water clusters ood_size frame=91
O      0.02460347    -0.14723791    -0.07127224
H      1.07116041     0.02506169    -0.05726516
H     -0.28411073    -0.83744535    -0.62271675
O      2.64267810     0.11082793    -0.03854820
H      2.82405159     0.90130452     0.00466522
H      3.43688823    -0.19419344    -0.65337707
O      2.68122361     2.75780849    -0.00436780
H      1.84550818     2.65852464    -0.13502539
H      3.06801136     3.37039141    -0.62332605
O      0.00994813     2.74274771    -0.00238603
H     -0.04189882     1.88097774     0.02767551
H     -0.67382545     2.93429513    -0.60952757
O      0.02756739    -0.02986191     2.63512775
H     -0.03838892     0.83518980     2.72389186
H     -0.64667055    -0.14981591     3.34287545
O      2.80448476     0.00407898     2.80544884
H      1.87833995     0.04298682     2.88583627
H      2.98428591    -0.58908381     3.44554494
O      2.80255270     2.85067694     2.77572163
H      2.69710894     1.78526940     2.66389355
H      3.30184057     2.81010537     3.48224751
O      0.09019250     2.67371810     2.74280794
H      1.02636235     2.83975453     2.72738354
H     -0.11776247     3.28085913     3.42690603
24
water clusters ood_size frame=92
O     -0.12723475    -0.00207928     0.12438656
H      0.94426259     0.07340358    -0.19634062
H     -0.25441764    -0.51269038    -0.75732551
O      2.83353289    -0.03791248     0.01600248
H      2.88862555     1.04557890    -0.17035107
H      3.33576075    -0.24774522    -0.57971225
O      2.70815505     2.64649852    -0.09637316
H      1.81160111     2.73829261    -0.02338355
H      3.05130215     3.57188115    -0.64518411
O      0.05592483     2.90548337    -0.02216319
H      0.06987068     1.90791839    -0.00167067
H     -0.58019594     3.03918955    -0.59840995
O      0.07250987    -0.12071458     2.70578428
H      0.11175879     1.06586531     2.78670092
H     -0.61254832    -0.08471710     3.23175717
O      2.86802930    -0.08229113     2.67821147
H      1.83790777    -0.04134335     2.77476439
H      2.97842371    -0.92594174     3.51365299
O      2.74517129     2.88533195     2.90995442
H      2.70093165     1.75704616     2.85536755
H      3.38470852     3.16096891     3.35012682
O     -0.03175517     2.93539703     2.69528602
H      0.85630859     2.80469836     2.79603549
H     -0.38088573     3.48494513     3.35011937
24
water clusters ood_size frame=93
O      0.03813724    -0.02243093     0.12852231
H      0.95657566    -0.09896455     0.14899375
H     -0.28243396    -0.60773581    -0.72275085
O      2.65792834    -0.03447291    -0.06809132
H      2.83971663     1.01104526     0.08513977
H      3.37487098    -0.33748249    -0.60000326
O      2.78464358     2.73684244    -0.10880542
H      1.85563514     2.76625322    -0.01274542
H      3.05080222     3.42439089    -0.71256580
O     -0.01241164     2.69799139     0.00209715
H     -0.11290366     1.74543046    -0.00102571
H     -0.66924332     3.05267485    -0.68437721
O      0.01124902     0.04653515     2.73339400
H     -0.00019044     0.96354908     2.68230840
H     -0.67276165    -0.21915531     3.48564252
O      2.77556193    -0.00091743     2.72426363
H      1.76708423    -0.00485001     2.70714105
H      3.04250786    -0.73622237     3.36860858
O      2.82580712     2.71289782     2.68604970
H      2.82498913     1.70759817     2.73367189
H      3.41728585     3.01553299     3.31637110
O     -0.12769514     2.70335030     2.73271368
H      1.02622776     2.78250371     2.68419984
H     -0.23883882     3.47380926     3.41887068
24
water clusters ood_size frame=94
O     -0.02583568    -0.01076895    -0.02555126
H      0.94318401     0.00435317    -0.03670702
H     -0.29546507    -0.64468768    -0.64560399
O      2.70904107    -0.03324155     0.03482820
H      2.87422316     0.98695276     0.07416848
H      3.39033949    -0.20383397    -0.69972494
O      2.64914519     2.81217380     0.03614606
H      1.79999353     2.73964153    -0.01477032
H      3.05763699     3.43833946    -0.65565883
O     -0.00995854     2.78250055    -0.02114081
H      0.04610801     1.78369135    -0.04111014
H     -0.66266212     2.91119025    -0.68304705
O      0.06263916    -0.05304057     2.72140039
H      0.07948103     0.98216461     2.81248341
H     -0.71763565    -0.32372760     3.53737117
O      2.76180018    -0.03659693     2.78631282
H      1.83306565     0.03293316     2.72037830
H      3.04440622    -0.59807458     3.28823604
O      2.83785962     2.73766830     2.81261223
H      2.73599210     1.76118551     2.77054822
H      3.41321346     3.01568962     3.35602271
O     -0.03201667     2.74211242     2.82804062
H      0.85875490     2.74336127     2.77789010
H     -0.16896906     3.36283267     3.29745119
24
water clusters ood_size frame=95
O      0.06411769    -0.07599766     0.05033622
H      0.97915191     0.01159420     0.06244996
H     -0.37158174    -0.57102450    -0.72401318
O      2.69034558     0.06937411     0.04862987
H      2.72505078     1.00849017    -0.06084296
H      3.50039347    -0.34459866    -0.69613733
O      2.75797936     2.77881226    -0.07627237
H      1.82943644     2.79363258     0.18096788
H      2.76948750     3.33478197    -0.68563469
O     -0.15178781     2.84437842    -0.02097310
H      0.03133251     1.65718331     0.08817183
H     -0.91494858     2.87130910    -0.65193155
O      0.00148614     0.00732945     2.79180810
H     -0.07090729     0.88110884     2.77755479
H     -0.85181686    -0.13234426     3.37420149
O      2.71608650     0.10292685     2.76462896
H      1.85100525    -0.15722673     2.71051168
H      2.87264238    -0.65016563     3.48645184
O      2.85127170     2.75704820     2.81945295
H      2.78871110     1.85130059     2.65857746
H      3.34017756     2.97738015     3.35127219
O      0.07035663     2.86676908     2.79884535
H      1.02957720     2.79109039     2.78544763
H     -0.21159627     3.38906820     3.44226846
24
water clusters ood_size frame=96
O     -0.01739692     0.06109100     0.00846225
H      0.99910614    -0.01971322    -0.08606305
H     -0.24066302    -0.63029336    -0.67729674
O      2.81266254     0.01811470    -0.03208762
H      2.83026041     0.91435356    -0.05194419
H      3.43815590    -0.22529687    -0.68143676
O      2.60335633     2.71951887    -0.11220358
H      1.75513725     2.62342099    -0.00533690
H      2.99160027     3.32698205    -0.57092796
O      0.05807466     2.71683240    -0.06787591
H     -0.10067274     1.88840516    -0.05439679
H     -0.61222055     3.05420593    -0.67350968
O      0.02225284     0.04163865     2.77052164
H     -0.05986624     0.98594084     2.76359876
H     -0.61319491    -0.26352830     3.51211504
O      2.69167849    -0.00173363     2.76323446
H      1.84277149     0.14275722     2.72027719
H      3.02643318    -0.60285022     3.44568199
O      2.86295636     2.81626423     2.67088254
H      2.75182860     1.78818259     2.75632780
H      3.30561756     3.01922949     3.40367929
O     -0.00839062     2.79010660     2.77253027
H      0.94918784     2.61495030     2.72882059
H     -0.23471612     3.37595552     3.34259381
24
water clusters ood_size frame=97
O      0.00014827     0.12386154     0.03733630
H      0.97882913     0.05234764    -0.05725157
H     -0.18914720    -0.66621691    -0.62783958
O      2.87130628    -0.03646736    -0.14014731
H      2.74489149     0.87685070    -0.02565524
H      3.47861191    -0.24256520    -0.66736689
O      2.75686718     2.70718796     0.04399735
H      1.84400563     2.70245988    -0.00110770
H      3.08421374     3.40689566    -0.57822354
O     -0.02401732     2.75016401    -0.11986738
H     -0.05057860     1.85626226     0.02394745
H     -0.56071510     2.96149122    -0.64186655
O     -0.04135287    -0.09108584     2.77226598
H      0.02618987     0.88278730     2.73957982
H     -0.59748832    -0.20425455     3.38487621
O      2.67579228     0.09137100     2.72991841
H      1.71725740     0.06626513     2.80273532
H      2.95521994    -0.60541950     3.48231427
O      2.79978822     2.83579453     2.64392189
H      2.82007422     1.75689579     2.85763230
H      3.28252869     3.02847736     3.36805897
O     -0.09258644     2.79443581     2.81012860
H      0.94870832     2.65625708     2.80496060
H     -0.33740634     3.34534332     3.46446679
24
water clusters ood_size frame=98
O     -0.02729016     0.09111092     0.17416045
H      1.04782524     0.03521506    -0.05420895
H     -0.28944336    -0.76137783    -0.51237683
O      2.77424480    -0.10565172    -0.00899330
H      2.73617093     0.99816171     0.04530611
H      3.37539805    -0.31346102    -0.88536494
O      2.71859346     2.62791477    -0.00906002
H      1.79509853     2.61138495    -0.08873411
H      3.01467671     3.41447756    -0.53497793
O      0.09433596     2.80472440    -0.05253707
H     -0.03923266     1.74239682    -0.19634108
H     -0.74950809     2.92924532    -0.83507129
O     -0.04500033     0.02688616     2.80197385
H     -0.16400490     1.08451671     2.69536239
H     -0.62230452    -0.30159635     3.37442799
O      2.72834038    -0.18874125     2.70100546
H      1.80222964    -0.08841478     2.81694477
H      3.06626735    -0.61199641     3.40333102
O      2.80107182     2.71254071     2.87493038
H      2.91510320     1.82230322     2.76110610
H      3.35085394     2.96138006     3.45064224
O     -0.02839077     2.85521045     2.74273038
H      1.08056569     2.72606384     2.67880114
H     -0.14326951     3.36396793     3.51158731
24
water clusters ood_size frame=99
O     -0.06308198    -0.00202046     0.06130486
H      0.97239884     0.01627980     0.05431307
H     -0.10748412    -0.76190480    -0.63208498
O      2.74700237     0.00882019     0.02179840
H      2.73771167     0.96389999    -0.04580739
H      3.42419424    -0.26369028    -0.62551044
O      2.75423750     2.74870123     0.03241933
H      1.95084018     2.78040638    -0.00944451
H      3.00539794     3.42558091    -0.69265693
O      0.08344034     2.76604321    -0.07844314
H      0.00938931     1.84721216    -0.03492418
H     -0.64020501     2.95336988    -0.68284187
O      0.03164513     0.15403977     2.74905139
H      0.06428434     0.95015841     2.76454679
H     -0.59360121    -0.24558256     3.36203347
O      2.68124888     0.05852342     2.81644997
H      1.77351108     0.02508376     2.71184641
H      2.97925343    -0.68900939     3.42584032
O      2.76154563     2.84076764     2.77616088
H      2.84398106     1.80008813     2.68240431
H      3.40964057     2.98780751     3.36132953
O      0.00550151     2.77520891     2.71335398
H      1.00706665     2.76530616     2.76231452
H     -0.22502249     3.45093784     3.34972463
30
water clusters ood_size frame=100
O      2.32059001     0.00261114     0.06778339
H      1.78733003     0.73033635    -0.06069658
H      2.45307902    -0.21461284     0.96018935
O      0.85097217     2.23175173    -0.00767957
H      0.71597682     2.11275892     0.93560264
H      1.57390142     2.24963124    -0.20855819
O     -1.88844723     1.37736671    -0.04440403
H     -1.88062316     0.45726642    -0.06727354
H     -1.80540938     1.55817789     1.02637009
O     -1.92926498    -1.39266447    -0.03799234
H     -1.94973776    -1.30176030     0.94226072
H     -0.99982503    -1.31977807    -0.17807492
O      0.81423586    -2.24189648     0.01035626
H      1.30056968    -1.41742179     0.07927317
H      0.64672267    -2.40336053     0.91988349
O      2.40087833     0.05572532     2.79861255
H      2.28636378     0.02267034     1.82711111
H      3.30635408    -0.01065341     2.98347925
O      0.73102635     2.22771869     2.62926385
H     -0.21397725     1.91491150     2.68526742
H      0.91621445     2.26601594     1.82193739
O     -1.85625987     1.43149027     2.72418373
H     -1.88076632     1.36610032     1.76532412
H     -1.00041163     1.35690478     2.92587142
O     -1.88621746    -1.38357327     2.79309562
H     -0.89624833    -1.65975805     2.75169586
H     -2.10142312    -1.31445592     1.85206983
O      0.61924992    -2.20668282     2.74248624
H      0.76487985    -2.24741972     1.76491513
H      1.62260738    -2.26105054     2.88627745
30
water clusters ood_size frame=101
O      2.46103174    -0.01786575     0.02270254
H      1.85164992     0.79414542    -0.01856925
H      2.46364790    -0.17324658     0.91691011
O      0.70438349     2.22067773    -0.05858752
H      0.67662112     2.18764411     1.05414563
H      1.60531552     2.33053448    -0.24953735
O     -1.92428463     1.33214899    -0.12083632
H     -1.97070974     0.44828148    -0.03473660
H     -1.87579650     1.45769602     0.93627172
O     -1.87154382    -1.28749140     0.13812573
H     -1.88090016    -1.51557456     0.99009813
H     -1.01935343    -1.42620971    -0.27645474
O      0.72355709    -2.24311569    -0.02911536
H      1.43943557    -1.50016299    -0.01087818
H      0.56141113    -2.45403161     0.86272842
O      2.32144222     0.11498270     2.75833614
H      2.30636604     0.05888849     1.83903316
H      3.26583240    -0.01056763     2.97457117
O      0.67946416     2.32926858     2.70559488
H     -0.03310218     1.85073772     2.71303014
H      1.01607773     2.29223730     1.68556394
O     -1.85755466     1.30244042     2.67309973
H     -1.88896628     1.51227946     1.67819149
H     -0.92108013     1.41168074     2.95387901
O     -1.96240313    -1.43129043     2.70502898
H     -0.98016143    -1.90392016     2.68524104
H     -2.22142933    -1.37988210     1.87131425
O      0.66009394    -2.21983061     2.67446264
H      0.71055647    -2.24952603     1.76420341
H      1.47638497    -2.18750084     3.03122558
30
water clusters ood_size frame=102
O      2.26613137    -0.05890795     0.16173890
H      1.81659414     0.72801896     0.10343442
H      2.52539922    -0.07912055     0.93138215
O      0.79823365     2.29567051     0.06461943
H      0.77425046     2.26202937     1.00499080
H      1.63298256     2.11874841    -0.24100661
O     -1.92345362     1.38560392     0.10308114
H     -1.52803348     0.48721666    -0.13362863
H     -1.74503083     1.72641662     0.96529538
O     -1.93423976    -1.25272694    -0.09259093
H     -1.88468078    -1.49881400     0.74465148
H     -1.08119754    -1.39898951    -0.23722158
O      0.77542026    -2.17506891    -0.00445319
H      1.34242889    -1.36975150     0.11903877
H      0.64630509    -2.46432149     0.95143220
O      2.31137594     0.02353404     2.72986727
H      2.38892323    -0.12407280     1.62235683
H      3.35528987    -0.04987802     2.92236985
O      0.57024190     2.16695748     2.70284316
H     -0.29734791     1.93521008     2.55163646
H      1.06519853     2.23199348     1.66766545
O     -1.84499293     1.28574441     2.62104553
H     -2.01172559     1.43825198     1.81618376
H     -0.91515699     1.37816323     3.11292220
O     -1.79496502    -1.37467437     2.57846788
H     -0.94781196    -1.60179418     2.62030604
H     -2.05332276    -1.23601424     1.75404432
O      0.85889788    -2.22690945     2.85935340
H      0.75069472    -2.27322404     1.84328518
H      1.67940134    -2.16246195     2.76968882
30
water clusters ood_size frame=103
O      2.25045808     0.06440423     0.01105184
H      1.75412503     0.63457477     0.00024152
H      2.47402685    -0.17492271     0.93509259
O      0.73314453     2.15882645    -0.09704810
H      0.75081025     2.18498521     0.99305181
H      1.64763452     2.21787051    -0.27881521
O     -1.93237646     1.39073302    -0.03092458
H     -1.98746055     0.50301452    -0.03157474
H     -1.96217790     1.56351767     0.91863703
O     -1.83725389    -1.34782549    -0.03947524
H     -1.88595192    -1.42214408     1.01187655
H     -0.93376175    -1.38230003    -0.29121706
O      0.76135426    -2.20815651     0.02926973
H      1.29597401    -1.55256028     0.01713157
H      0.60748767    -2.39889790     0.80439759
O      2.34138675     0.01780787     2.63142467
H      2.34971382    -0.03615855     1.70536703
H      3.24781266     0.01652666     2.98477561
O      0.81748561     2.22925357     2.75764672
H     -0.13633208     1.90948695     2.68490343
H      0.94178616     2.39277445     1.85375328
O     -1.86622735     1.37957607     2.65204745
H     -1.92851551     1.44057831     1.76814926
H     -0.99021806     1.36406560     2.95473224
O     -1.93528052    -1.30164630     2.69983546
H     -0.97142401    -1.70240232     2.68725226
H     -2.17061761    -1.40443336     1.79905252
O      0.72662859    -2.10878880     2.78486357
H      0.77940215    -2.23280540     1.80884710
H      1.75531735    -2.17266873     2.92060907
30
water clusters ood_size frame=104
O      2.38400867     0.00126010     0.02014568
H      1.79745172     0.73429111     0.12802870
H      2.44073557    -0.17423968     0.95337771
O      0.75332807     2.28056168    -0.15950623
H      0.65834275     2.24177211     1.01285021
H      1.68867840     2.28256266    -0.25227752
O     -1.73231151     1.48420329     0.09467723
H     -1.88673300     0.41415362     0.03868468
H     -1.93491867     1.56618296     0.91965927
O     -1.87571730    -1.38164615     0.14532167
H     -1.97736594    -1.23631674     1.04138609
H     -0.97531970    -1.25663050    -0.16517434
O      0.67506464    -2.16713251     0.02891111
H      1.32001775    -1.57617024    -0.07751116
H      0.55633078    -2.48061402     0.94322782
O      2.35044505    -0.02673951     2.71355625
H      2.26029518    -0.09846948     1.73535795
H      3.14810797     0.06535539     3.03216390
O      0.72480300     2.26225503     2.78727420
H     -0.18303524     1.99817066     2.66639712
H      0.96155842     2.32370464     1.86099785
O     -1.86748580     1.45776128     2.69947710
H     -1.92684040     1.27703461     1.72918023
H     -1.03351947     1.35612172     2.98681114
O     -1.81496264    -1.31851328     2.60467383
H     -1.01278657    -1.64963864     2.72226999
H     -2.02726146    -1.37075351     1.78619700
O      0.68953462    -2.14006019     2.68390820
H      0.65925322    -2.36021093     1.80451329
H      1.50453275    -2.24929075     3.07850572
30
water clusters ood_size frame=105
O      2.44442854    -0.03263078     0.06316298
H      1.58827440     0.78053796     0.11339953
H      2.57432459    -0.25734232     0.79077354
O      0.82782839     2.20796252     0.03422458
H      0.59553575     2.39763886     0.83168226
H      1.90588372     2.19750895    -0.09731948
O     -1.87909345     1.42485117    -0.01557995
H     -1.97451261     0.43931910     0.07531937
H     -1.88036982     1.62102222     0.98213495
O     -1.86506750    -1.36578939     0.01756101
H     -1.78879376    -1.31568302     1.07578133
H     -0.74483766    -1.37846187    -0.40614801
O      0.73778579    -2.27927963     0.08185293
H      1.25151043    -1.47154221     0.04986684
H      0.62117206    -2.42473901     0.83461882
O      2.28731687     0.14763227     2.75544264
H      2.30895515    -0.11025321     2.00530041
H      3.33883925     0.23758125     3.12545807
O      0.72068957     2.35398798     2.82430529
H     -0.12094184     1.93512287     2.56518446
H      0.96656139     2.21284279     1.78969341
O     -1.93559469     1.34163540     2.78378563
H     -1.93177960     1.35858966     1.79251597
H     -1.06963577     1.25258986     3.04665061
O     -1.91852362    -1.26512818     2.75486617
H     -1.10822220    -1.61324035     2.80643160
H     -1.94012706    -1.13766891     1.74731855
O      0.72890648    -2.35093727     2.80798213
H      0.89572820    -2.30282850     1.77574107
H      1.62937273    -2.40834655     2.80673331
30
water clusters ood_size frame=106
O      2.24088882    -0.03420176     0.02308418
H      1.75091092     0.79879923     0.02083572
H      2.42379233    -0.24957987     0.95540882
O      0.75881026     2.24397423     0.05082347
H      0.73281949     2.28792122     0.96330114
H      1.71277648     2.33939321    -0.23168124
O     -1.90612535     1.42928424    -0.06542273
H     -1.89370288     0.46091743    -0.00346323
H     -1.90109021     1.59549194     0.87569602
O     -1.83867036    -1.44689665    -0.01783909
H     -1.88438487    -1.33098511     0.92684005
H     -0.96833881    -1.38101433    -0.22274466
O      0.74717392    -2.24101413    -0.09641460
H      1.33233673    -1.45350420    -0.00475176
H      0.59572617    -2.34187288     1.00739377
O      2.34050919    -0.08366093     2.68646531
H      2.36578032     0.00792355     1.68885096
H      3.25097498     0.02109301     2.96340038
O      0.68537049     2.25135883     2.76613358
H     -0.18177267     1.93925598     2.72484157
H      1.01111782     2.34147001     1.71526396
O     -2.03678063     1.39314727     2.68620569
H     -1.86007026     1.36817075     1.78883442
H     -1.01925069     1.36722167     2.93797346
O     -1.93735727    -1.43640644     2.67242687
H     -1.00321950    -1.63763258     2.75705887
H     -2.09350154    -1.32967595     1.78735414
O      0.66589994    -2.34599102     2.64860047
H      0.67923400    -2.25765811     1.71728805
H      1.72643734    -2.22276212     2.99751086
30
water clusters ood_size frame=107
O      2.31450537    -0.09446044     0.08857513
H      1.80259099     0.74806044    -0.03361722
H      2.54788337    -0.20391686     0.88573065
O      0.77888024     2.32586298     0.01757522
H      0.80843077     2.37165405     1.00622762
H      1.59267471     2.16805644    -0.20697431
O     -1.85529892     1.36125549    -0.04096039
H     -1.82902794     0.36785409     0.04518740
H     -1.90745354     1.55073593     0.87605517
O     -1.87205174    -1.36484809    -0.06453199
H     -1.85912598    -1.23608090     1.02267885
H     -1.15267476    -1.49107686    -0.25257706
O      0.63335797    -2.23343311    -0.06211523
H      1.22321216    -1.50853550     0.07180810
H      0.60470363    -2.40830385     1.03918475
O      2.19964557    -0.09838823     2.71675891
H      2.32855097    -0.07793698     1.72170560
H      3.26751993    -0.00961740     2.98634552
O      0.85437490     2.12440168     2.62446841
H     -0.18202008     2.07289966     2.62653681
H      1.05925553     2.43136244     1.79945697
O     -1.91012048     1.47468039     2.62973947
H     -1.82934332     1.28308147     1.62392261
H     -1.06436267     1.42455400     2.94358262
O     -1.81829471    -1.14944551     2.81496255
H     -0.99446316    -1.75887051     2.71847995
H     -2.10565276    -1.35342296     1.75995153
O      0.79991667    -2.21175719     2.69805965
H      0.58194478    -2.18358274     1.74614421
H      1.66038641    -2.38639704     2.96625132
30
water clusters ood_size frame=108
O      2.39796458     0.10880790     0.20730548
H      1.83981309     0.78251586    -0.18089218
H      2.50781365    -0.22068075     0.93132208
O      0.59561772     2.17535599    -0.02040463
H      0.80990489     2.28636825     0.98144610
H      1.65970788     2.12132525    -0.37083493
O     -1.80147658     1.28286731    -0.01526417
H     -1.84484124     0.53441304    -0.08219557
H     -2.03296056     1.67781390     0.87659286
O     -2.02395766    -1.27813595     0.01606144
H     -1.87777035    -1.40918837     0.96251119
H     -0.83470050    -1.26102103    -0.15216211
O      0.74863412    -2.31034077     0.06524432
H      1.38381485    -1.50682156     0.12598609
H      0.47673076    -2.33779887     0.86443898
O      2.37048575     0.04226171     2.80976337
H      2.22736834    -0.01068774     1.78011014
H      3.28909410    -0.10812945     3.04285901
O      0.58605937     2.16920390     2.87947256
H     -0.55972936     1.88626464     2.83157724
H      1.16707665     2.28117839     1.98198892
O     -2.04496521     1.33339179     2.61356062
H     -2.05612175     1.31626060     1.78959818
H     -0.95156092     1.32749888     2.79587187
O     -1.83178510    -1.55788125     2.76738283
H     -0.94820538    -1.55715807     2.80376084
H     -2.04540461    -1.29598299     1.86750586
O      0.87134863    -2.33556987     2.61190699
H      0.54036401    -2.08800722     1.63234629
H      1.70144510    -1.96982146     3.08882015
30
water clusters ood_size frame=109
O      2.37749649    -0.02450282    -0.05355193
H      1.85026069     0.76578676     0.03751243
H      2.49648476    -0.30811336     0.89870762
O      0.66213879     2.19294515    -0.11400251
H      0.65601163     2.19858695     1.02023242
H      1.64911755     2.23627525    -0.23307766
O     -1.88706249     1.40705244     0.07386980
H     -1.86901459     0.47817755     0.04166264
H     -1.93111201     1.59676778     0.88157638
O     -1.95619837    -1.35171058    -0.07370642
H     -1.86982814    -1.42001873     0.99914372
H     -0.93534492    -1.42376973    -0.23562491
O      0.77534845    -2.16554036    -0.03641040
H      1.34182706    -1.43637062     0.06593912
H      0.57021048    -2.42705897     0.85144020
O      2.41276145    -0.01180362     2.78795948
H      2.33085770     0.05534676     1.74184439
H      3.31929735    -0.05762178     2.94759157
O      0.71580766     2.17556703     2.76667791
H     -0.18723740     1.91618689     2.72335554
H      0.89784462     2.41375978     1.81646509
O     -1.98845435     1.37665131     2.77551768
H     -1.88705751     1.51741219     1.76007742
H     -0.94372953     1.34568197     2.95639761
O     -1.80560175    -1.39119613     2.64298021
H     -0.96638473    -1.73389053     2.74227540
H     -2.15908166    -1.32743898     1.68491021
O      0.72320009    -2.27136573     2.70754646
H      0.73947318    -2.21141372     1.70137931
H      1.68501129    -2.15974735     3.02028089
30
water clusters ood_size frame=110
O      2.29747182     0.07666812     0.12869353
H      1.84278620     0.73325259    -0.16919702
H      2.56725088    -0.19047347     0.84023428
O      0.84970271     2.26287681    -0.04233978
H      0.75273534     2.20750880     0.92435318
H      1.74553595     2.25680267    -0.19646907
O     -1.84831034     1.37580265     0.11384196
H     -1.92643900     0.41340637    -0.03108239
H     -1.97222534     1.58509189     0.92371579
O     -1.90736258    -1.39136153    -0.12873541
H     -1.84988865    -1.43449181     0.88760835
H     -0.93651268    -1.40187463    -0.37622945
O      0.77024117    -2.28195321     0.01134572
H      1.33278848    -1.36354617     0.03341099
H      0.64195389    -2.37682004     0.87706356
O      2.27223891    -0.06065487     2.72113201
H      2.45523555    -0.02070923     1.69727691
H      3.20750813    -0.05364360     2.98268713
O      0.69585865     2.21785785     2.63603644
H     -0.29026593     1.97054498     2.70339434
H      1.00642774     2.27878236     1.89972069
O     -1.89796716     1.35133953     2.66938807
H     -1.92234922     1.37381080     1.80721889
H     -0.97229358     1.42025804     2.95197268
O     -1.91976023    -1.48211531     2.74541441
H     -0.95294102    -1.63171548     2.79323623
H     -2.09462495    -1.43349488     1.81097894
O      0.67970737    -2.10186439     2.77580029
H      0.62044360    -2.30317118     1.72520322
H      1.53534117    -2.27052490     2.96215844
30
water clusters ood_size frame=111
O      2.46117404     0.00651292    -0.11205106
H      1.73928524     0.90612442     0.05145902
H      2.51711723    -0.07661537     1.00921246
O      0.62776441     2.31691375    -0.07088011
H      0.80272077     2.06816927     0.99365931
H      1.54650727     2.19991384    -0.15557305
O     -1.92422507     1.56511308     0.01686526
H     -1.79364042     0.42207658     0.06350514
H     -1.88036692     1.62642579     1.07983261
O     -1.84115003    -1.47909588    -0.01079637
H     -1.95749104    -1.35076654     0.95596580
H     -0.88346233    -1.32423144    -0.05102379
O      0.68406213    -2.31528667    -0.12761574
H      1.21343789    -1.57622108     0.07815739
H      0.65804434    -2.49936143     0.89529554
O      2.44237318    -0.04366471     2.87713644
H      2.29404149    -0.02982925     1.80025088
H      3.38267479     0.00781280     3.08285210
O      0.59406211     2.20906702     2.73912908
H     -0.24421362     2.13679201     2.76032974
H      1.08394302     2.17821130     1.90601827
O     -1.86901995     1.36211776     2.66089779
H     -1.94653002     1.45255105     1.71471906
H     -0.91485715     1.26880524     2.85099195
O     -2.06825693    -1.36803739     2.71853055
H     -0.91187717    -1.78436734     2.81474811
H     -2.09031266    -1.30116763     1.88282428
O      0.68304950    -2.21662495     2.59944425
H      0.79144935    -2.48402616     1.70019030
H      1.75140655    -2.14561234     3.13255645
30
water clusters ood_size frame=112
O      2.29232831    -0.02965615     0.02007786
H      1.69435876     0.83341244     0.04717644
H      2.51470729    -0.16956898     0.88291370
O      0.76096180     2.18015739    -0.05527783
H      0.72330772     2.15801886     0.89610462
H      1.67755551     2.28803086    -0.20255550
O     -1.96694332     1.38541237     0.00815416
H     -1.95851650     0.37222765    -0.02002288
H     -1.93649031     1.63802320     0.85994573
O     -1.94092034    -1.34148485     0.02798109
H     -1.92831380    -1.32117822     1.01551974
H     -0.97914003    -1.36913032    -0.21317881
O      0.73679936    -2.25615445    -0.05323965
H      1.27161361    -1.47690310    -0.01186783
H      0.58355816    -2.45676650     0.96341004
O      2.30053620    -0.03622465     2.72405694
H      2.30443513    -0.00517315     1.71251218
H      3.31910677    -0.03373164     2.92259112
O      0.79959288     2.29598911     2.78269460
H     -0.26305355     1.94648411     2.71866224
H      0.86370041     2.32237940     1.83295719
O     -1.89560473     1.45748695     2.71819453
H     -1.82966785     1.43917177     1.79420929
H     -0.89909444     1.29264376     3.00262351
O     -1.93655794    -1.33975651     2.77456364
H     -0.92340377    -1.75113033     2.70613442
H     -2.20542952    -1.23708026     1.80618739
O      0.69929186    -2.12825844     2.73142421
H      0.69922999    -2.22061039     1.77285353
H      1.67694802    -2.19112844     2.94442294
30
water clusters ood_size frame=113
O      2.32338797     0.03123808    -0.08484160
H      1.76630290     0.98685215     0.08805223
H      2.44909076    -0.22030262     0.97875889
O      0.63438230     2.15977382    -0.06151070
H      0.66921729     2.23168703     0.83172701
H      1.64636365     2.25092343    -0.20066044
O     -1.98841746     1.33966127    -0.03878656
H     -1.84347426     0.42142435     0.08379784
H     -1.84883472     1.57577034     0.96072325
O     -1.96663545    -1.41116434     0.06405009
H     -1.85686813    -1.30285726     1.00773466
H     -0.93427063    -1.44740389    -0.18726256
O      0.74577342    -2.08747648     0.00674566
H      1.31277895    -1.57149063    -0.01945013
H      0.55143999    -2.56339603     0.88256871
O      2.28446728     0.05957552     2.75394597
H      2.42867111    -0.06764302     1.98201805
H      3.25094199     0.01649269     2.97847508
O      0.79517958     2.19679355     2.67569184
H     -0.18928079     1.94709901     2.80298676
H      1.02693309     2.42352019     1.84002423
O     -1.98143448     1.38022806     2.65993341
H     -1.83470222     1.39393335     1.68270411
H     -1.05109443     1.48868562     3.05984435
O     -1.89805119    -1.42830020     2.83482028
H     -1.08948242    -1.67265409     2.59697743
H     -2.05790716    -1.20097781     1.80040277
O      0.71598955    -2.17552402     2.68758920
H      0.73518264    -2.14922048     1.80412277
H      1.64486150    -2.32589876     2.94702509
30
water clusters ood_size frame=114
O      2.37323795    -0.07512882    -0.01543325
H      1.69665493     0.73811250     0.00356687
H      2.41162383    -0.07087437     0.94365739
O      0.66949950     2.41122427     0.12648015
H      0.68494897     2.22701131     0.89001316
H      1.82455362     2.20604044    -0.27134077
O     -1.94073336     1.30285896    -0.02410111
H     -1.92770389     0.38940299     0.03029080
H     -2.05915986     1.59154717     0.84662761
O     -1.98188227    -1.33565946     0.14777259
H     -1.87968898    -1.38626887     1.09271314
H     -0.99958772    -1.35390053    -0.18780125
O      0.66200226    -2.23371554     0.11716112
H      1.22476495    -1.50644920    -0.06806332
H      0.62285317    -2.36947235     0.88897140
O      2.41951212    -0.08220280     2.83826373
H      2.34238437     0.18694570     1.90251114
H      3.25586458     0.18574034     2.88953555
O      0.77327389     2.19568980     2.62071674
H     -0.10395813     2.11171281     2.69722382
H      1.12967329     2.36820272     1.67595769
O     -1.90154900     1.38241830     2.66589433
H     -1.83891671     1.25770103     1.73076088
H     -0.91610511     1.47643139     2.88897528
O     -1.90203168    -1.40494241     2.72887666
H     -1.05672803    -1.61993738     2.47061187
H     -2.15623101    -1.53346443     1.69670523
O      0.74471132    -2.34620489     2.66712859
H      0.67389663    -2.25507160     1.81391961
H      1.59045404    -2.29832139     3.12336623
30
water clusters ood_size frame=115
O      2.35062372    -0.01767394    -0.03510122
H      1.82439075     0.80481994     0.05507140
H      2.58222376    -0.12037994     1.02017999
O      0.69759328     2.18043481    -0.00776520
H      0.69123959     2.28107518     0.99888693
H      1.70729470     2.17378262    -0.21844310
O     -1.83712303     1.38207240    -0.00817965
H     -2.02005824     0.36423584     0.02850401
H     -1.81634360     1.61628977     0.93342699
O     -1.97765562    -1.31311239     0.00299872
H     -1.94632362    -1.32594105     0.88647531
H     -1.01929722    -1.31032382    -0.28662421
O      0.73516387    -2.30376186    -0.03767716
H      1.27240060    -1.50223388     0.01098309
H      0.60181387    -2.47743724     0.87084684
O      2.37952625    -0.08480632     2.85762441
H      2.33875870     0.04880746     1.72387043
H      3.23055566    -0.03230023     3.01644279
O      0.71538702     2.24363767     2.63189930
H     -0.18615938     1.93432008     2.67664187
H      0.91365936     2.25658107     1.77025417
O     -1.95131195     1.37775593     2.76426508
H     -1.83678134     1.42514865     1.81220712
H     -0.98051371     1.38632985     2.96923036
O     -1.89508686    -1.38969837     2.71540983
H     -1.00837167    -1.60714593     2.69815837
H     -2.17117303    -1.27769961     1.70461102
O      0.73496431    -2.17684015     2.75316783
H      0.62845073    -2.30823377     1.74294952
H      1.60158724    -2.24645522     2.96739659
30
water clusters ood_size frame=116
O      2.27324546     0.01644917     0.11208087
H      1.81529545     0.83084893    -0.01567254
H      2.38353777    -0.22393129     1.01072983
O      0.64455457     2.28929410     0.08102465
H      0.55617309     2.26804330     0.95714282
H      1.56158859     2.17586447    -0.36131916
O     -1.96551992     1.47129913    -0.00684762
H     -1.90242817     0.61227908     0.03242208
H     -2.05506146     1.51975663     0.88664830
O     -1.82054356    -1.35232295     0.13438229
H     -1.92321623    -1.34697237     0.94238509
H     -0.91526427    -1.40207844    -0.26995473
O      0.75327397    -2.35394653     0.09376423
H      1.23984433    -1.50203090     0.00544081
H      0.61310250    -2.43667601     0.95835281
O      2.38948269    -0.01089473     2.72428477
H      2.31343063    -0.02689377     1.60062047
H      3.24172813    -0.03845198     2.85813198
O      0.70484503     2.11627632     2.56914946
H     -0.16051491     2.06376280     2.80506197
H      0.89661687     2.34743450     1.72639214
O     -1.86093501     1.41140835     2.79498013
H     -1.94617048     1.40428608     1.76558693
H     -0.96662887     1.35208058     2.98806887
O     -1.77337034    -1.26521212     2.72500258
H     -0.98148539    -1.71716046     2.63266605
H     -2.03928610    -1.42364999     1.59198746
O      0.85798887    -2.24176886     2.65485705
H      0.70738176    -2.22898882     1.68007522
H      1.79040975    -2.19161739     3.01657016
30
water clusters ood_size frame=117
O      2.36636588    -0.18746500    -0.03763054
H      1.88232669     0.82040207    -0.09735234
H      2.72480106    -0.28644787     0.81220449
O      0.66281476     2.41403116    -0.14339562
H      0.83584338     2.09980960     0.95219475
H      1.67695479     2.30130057    -0.20711082
O     -1.99377760     1.43281008     0.03004879
H     -1.91162914     0.54570708     0.05916873
H     -1.86556092     1.58644492     0.93957157
O     -1.75363198    -1.27750668     0.13416978
H     -1.72514089    -1.23866354     0.88499769
H     -0.90552670    -1.42373944    -0.13728987
O      0.99045016    -2.09420678    -0.09720669
H      1.32245590    -1.38195740     0.06002387
H      0.70105309    -2.41900341     0.96481495
O      2.33507974    -0.04739075     2.52960493
H      2.24170693     0.18596778     1.71467770
H      3.47282810    -0.04129197     2.83867615
O      0.66399220     2.43437103     2.80216159
H     -0.20438376     1.85922259     2.60321869
H      1.06665549     2.36317503     1.71979769
O     -1.99680912     1.33580323     2.88962629
H     -1.93039507     1.32863576     1.95129619
H     -0.90649114     1.32550940     2.74496961
O     -1.92315204    -1.41907405     2.91878918
H     -0.92910726    -1.64064378     2.60197088
H     -2.04830115    -1.38002502     1.76739645
O      0.80024755    -2.13392849     2.80663765
H      0.73756125    -2.18325636     1.95150700
H      1.66430136    -2.20241693     2.82515507
30
water clusters ood_size frame=118
O      2.38148675    -0.01137050    -0.07389073
H      1.77538201     0.79225301     0.01776597
H      2.46388210    -0.25329533     0.87447657
O      0.72002438     2.22679396    -0.02021415
H      0.80081576     2.29862257     0.88116036
H      1.62680406     2.31497610    -0.29982252
O     -1.84402872     1.36254387     0.03577321
H     -1.91962091     0.39581346     0.04108129
H     -1.91345345     1.69285460     0.97609604
O     -1.86201960    -1.36025012    -0.01881001
H     -1.96031077    -1.41429323     0.87041133
H     -0.94495548    -1.39338174    -0.20388798
O      0.72634966    -2.18010510    -0.04092421
H      1.30241609    -1.39684639     0.05378540
H      0.66220180    -2.39365678     0.90776601
O      2.44101808     0.01430760     2.74657666
H      2.28999794     0.04243221     1.81216835
H      3.21443465    -0.00024879     3.04930276
O      0.74054943     2.14965132     2.80208523
H     -0.23120800     1.90679362     2.75611087
H      0.94435038     2.33990488     1.84387057
O     -1.94525748     1.36809204     2.73822816
H     -1.88161075     1.32375108     1.75111555
H     -0.99190770     1.34770255     3.03675626
O     -1.89571530    -1.29571490     2.67501025
H     -0.97144140    -1.67988791     2.69864770
H     -2.07674820    -1.36153296     1.77020133
O      0.67664746    -2.21142263     2.78650765
H      0.70510429    -2.30114993     1.71010057
H      1.70762111    -2.22535529     2.98546585
30
water clusters ood_size frame=119
O      2.41515191     0.08332102     0.03634082
H      1.67296945     0.77633254    -0.00161612
H      2.55142243    -0.13108571     1.06513493
O      0.72383437     2.42280206     0.16834795
H      0.86436115     2.13993698     0.90235350
H      1.61482608     2.23588979    -0.37557615
O     -1.92836295     1.43765297     0.11650296
H     -1.89540610     0.52160780    -0.01123851
H     -1.89700768     1.65744911     0.99640053
O     -1.97976034    -1.36742891    -0.06042372
H     -1.98787241    -1.40656533     0.96776937
H     -0.98081955    -1.31046522    -0.23516787
O      0.78178712    -2.26600062     0.07252292
H      1.29593152    -1.49554729     0.03165075
H      0.66611930    -2.39452302     0.91973913
O      2.41097234    -0.02936226     2.76927045
H      2.46327390    -0.00414221     1.81506700
H      3.17292666    -0.01040070     2.86900258
O      0.90406766     2.19465782     2.72346763
H     -0.27607564     1.98227318     2.76706434
H      0.81966229     2.39594294     1.71487784
O     -1.94655958     1.43742345     2.67825195
H     -1.88705163     1.47867917     1.80223050
H     -0.90248110     1.30911213     2.99001098
O     -1.80842018    -1.39213010     2.63758669
H     -0.99254377    -1.64762018     2.68701118
H     -2.15600708    -1.27926851     1.85422760
O      0.83067500    -2.24216790     2.76869950
H      0.75654378    -2.24628195     1.78843192
H      1.65243301    -2.23967999     3.01372365
30
water clusters ood_size frame=120
O      2.47118361    -0.10264054    -0.02596201
H      1.73538345     0.75176938    -0.05709145
H      2.63464010    -0.28394205     0.91745265
O      0.80573370     2.23392539    -0.03287386
H      0.77974693     2.10135413     1.09796520
H      1.74532087     2.36556428    -0.32202861
O     -1.84242362     1.45970467     0.03197405
H     -1.91753697     0.51986112     0.04127605
H     -2.00600085     1.69368413     1.02675073
O     -1.95880701    -1.33813069     0.00603882
H     -1.69210784    -1.36492897     0.94216726
H     -0.88296247    -1.43181379    -0.47348069
O      0.56612123    -2.47052497     0.04991610
H      1.17229950    -1.52207908    -0.05050431
H      0.63612899    -2.27078177     0.97356923
O      2.27894855    -0.01997407     2.60910974
H      2.32235355    -0.09506295     1.64441088
H      3.32786494     0.06174881     2.86739863
O      0.78137436     2.35580406     2.79062063
H     -0.19893312     1.99374979     2.85694502
H      0.86629951     2.12623622     1.81609888
O     -2.01265269     1.30602965     2.71324857
H     -1.79834717     1.47671798     1.80797421
H     -0.95449903     1.45259635     2.93842105
O     -1.88877594    -1.34579178     2.70830010
H     -0.99917317    -1.70604257     2.68609975
H     -1.95533194    -1.24759365     1.89983599
O      0.59413885    -2.27016512     2.64043746
H      0.71850548    -2.20827674     1.66934650
H      1.39832612    -2.31406002     3.01662276
30
water clusters ood_size frame=121
O      2.25435598    -0.13702576     0.01882414
H      1.87921272     0.78666902    -0.06287674
H      2.55155055    -0.30516787     0.97232785
O      0.71993427     2.19874560    -0.03207166
H      0.74331430     2.22881453     0.88718284
H      1.68068605     2.14329067    -0.23620320
O     -1.96646058     1.41735086    -0.04096107
H     -1.90512538     0.48536202     0.03789646
H     -1.90374837     1.64178142     0.93546781
O     -1.90076256    -1.39640084    -0.01288295
H     -1.88833515    -1.36088389     0.90663781
H     -0.93437522    -1.40255650    -0.23570451
O      0.68555624    -2.22127269     0.05044493
H      1.19179660    -1.47147590    -0.03665321
H      0.59265339    -2.41606393     0.98462843
O      2.27231718    -0.08555627     2.66982208
H      2.31568637     0.06473127     1.72684205
H      3.28383630    -0.03475829     3.00453340
O      0.65058165     2.20712138     2.70658300
H     -0.33366199     1.97629774     2.74767487
H      0.98967484     2.37621597     1.80450205
O     -1.78853739     1.42375792     2.68255853
H     -1.94024548     1.46888349     1.70144864
H     -1.03246614     1.35908010     2.96052476
O     -1.82047987    -1.38744871     2.75276368
H     -0.99810711    -1.77199336     2.75376254
H     -2.13280627    -1.29220384     1.80272268
O      0.72314059    -2.26625023     2.75962374
H      0.74995578    -2.18716980     1.71305161
H      1.57249140    -2.31091661     3.01272344
30
water clusters ood_size frame=122
O      2.31727884     0.00789609    -0.03060130
H      1.83727350     0.80443874     0.16526347
H      2.40260769    -0.35203137     0.82669597
O      0.74639683     2.25677712     0.03226853
H      0.65753978     2.15698665     0.89928137
H      1.52914986     2.12160237    -0.29765737
O     -1.93041491     1.31974424     0.02776160
H     -1.93366514     0.39151874    -0.01814931
H     -1.91560690     1.62443362     0.87205201
O     -1.84658387    -1.45012816    -0.06862566
H     -1.80890249    -1.39758064     0.99286138
H     -0.96451551    -1.47351915    -0.19872891
O      0.63960802    -2.27145249     0.03137087
H      1.20834522    -1.55507385     0.03218295
H      0.69261497    -2.40336188     0.88475841
O      2.30360926    -0.01757255     2.77519380
H      2.31314246    -0.07161308     1.76501251
H      3.29144994    -0.01547467     2.94457543
O      0.80733291     2.32957287     2.69984442
H     -0.21944717     1.84073643     2.73035485
H      0.95345221     2.41746610     1.84866097
O     -1.99975019     1.31460760     2.71237085
H     -1.89492903     1.40529518     1.78298514
H     -0.80867432     1.46980859     2.85647556
O     -1.92494839    -1.36361569     2.69203639
H     -0.96439263    -1.66262299     2.76881197
H     -2.16406602    -1.31775698     1.90415056
O      0.76453201    -2.20886153     2.78027172
H      0.78447348    -2.31224776     1.81944278
H      1.77291414    -2.24793550     3.08120294
30
water clusters ood_size frame=123
O      2.40506709    -0.07968995    -0.15646375
H      1.58084712     0.69196445    -0.01605552
H      2.50543489    -0.15174910     0.91967176
O      0.89546923     2.20419001    -0.02228463
H      0.70624183     2.18573863     0.99958418
H      1.75560610     2.22998101    -0.21039060
O     -1.73462186     1.48359408     0.11811600
H     -1.90872567     0.44866855    -0.03398784
H     -1.89128779     1.58041629     0.91384488
O     -1.87819392    -1.33986097     0.06210867
H     -1.94608151    -1.29596834     0.91322275
H     -0.85190277    -1.41322462    -0.26768112
O      0.72122864    -2.22192021     0.09375032
H      1.37284065    -1.40543595     0.02740481
H      0.66213958    -2.43682428     1.01810876
O      2.56313528     0.03250081     2.60159674
H      2.47687389     0.09625301     1.56953202
H      3.29443108    -0.06263510     3.09649416
O      0.68206642     2.00154010     2.57444036
H     -0.16765842     1.88447027     2.62421105
H      1.05777565     2.36227831     1.84860312
O     -1.81773877     1.40767777     2.57783069
H     -1.88246868     1.39966719     1.70870557
H     -0.99138342     1.37131335     2.87133139
O     -1.73268783    -1.47145502     2.77271865
H     -0.94028922    -1.82912072     2.91591009
H     -2.08797971    -1.39770510     1.73191773
O      0.57110824    -2.33694708     2.80974016
H      0.68925962    -2.29348956     1.82896204
H      1.62243909    -2.35596097     3.01793437
30
water clusters ood_size frame=124
O      2.22155367     0.00970946     0.09379132
H      1.81519184     0.64172163    -0.00210885
H      2.56234036    -0.20907751     0.93675142
O      0.66873866     2.26156013     0.03545770
H      0.64904096     2.26758706     0.95796607
H      1.69784781     2.18380033    -0.21205576
O     -1.84360495     1.34121254     0.00330682
H     -2.01338085     0.35337651     0.03282985
H     -1.80247282     1.61816821     0.95759348
O     -1.85370483    -1.39035323    -0.05489880
H     -1.97932651    -1.40174821     0.94766486
H     -0.97642988    -1.42571144    -0.24646580
O      0.68755657    -2.30926990     0.02487796
H      1.35760235    -1.45355839     0.03282997
H      0.56845291    -2.40078905     0.93840453
O      2.35624491    -0.01810545     2.72704628
H      2.44020259    -0.05538737     1.72674456
H      3.34869429    -0.09542910     2.95165037
O      0.72350914     2.26585720     2.73867987
H     -0.16722987     1.95007156     2.72620827
H      1.01622487     2.24516526     1.77999813
O     -1.85923557     1.27780488     2.60473823
H     -1.84004627     1.28281653     1.79748016
H     -0.91201442     1.38565158     2.93451724
O     -1.92293330    -1.40477079     2.76528940
H     -0.88965527    -1.67962213     2.81817968
H     -2.10066978    -1.20211274     1.61431238
O      0.70945253    -2.24864699     2.73893711
H      0.73474804    -2.15425311     1.70742303
H      1.58451841    -2.22198688     3.00459390
30
water clusters ood_size frame=125
O      2.34936057    -0.02439479     0.00581521
H      1.75140567     0.74630644    -0.02172089
H      2.49565541    -0.19466248     0.91010840
O      0.77651685     2.17489357    -0.01284017
H      0.60521487     2.23099313     0.90811977
H      1.64493417     2.26184062    -0.28723411
O     -1.92978595     1.35679433    -0.05458123
H     -1.93693255     0.43940697    -0.12593874
H     -1.86758773     1.70326797     0.91016328
O     -1.94315327    -1.46897993     0.00709739
H     -1.85290023    -1.39608196     0.90890120
H     -0.98843450    -1.31824604    -0.15863411
O      0.69410759    -2.28260796    -0.04610651
H      1.25661625    -1.45946672    -0.04137478
H      0.50819070    -2.43601532     0.86227676
O      2.35797672     0.01456455     2.78613900
H      2.40294713    -0.03969817     1.70662373
H      3.22585938    -0.00312660     2.96600956
O      0.68118562     2.14293136     2.68801628
H     -0.24168879     1.93230566     2.83228575
H      0.88009898     2.33941602     1.77692219
O     -1.81381394     1.36563693     2.62501442
H     -1.91312688     1.55572575     1.89822230
H     -1.02299256     1.34839361     2.96495963
O     -1.77983334    -1.36604845     2.72009049
H     -1.00989234    -1.73588315     2.69201932
H     -2.06058083    -1.42028922     1.79873255
O      0.72945931    -2.16542214     2.63445915
H      0.80123466    -2.30896855     1.88051180
H      1.78177141    -2.30917589     2.85934200
30
water clusters ood_size frame=126
O      2.33504136     0.14693548     0.14599806
H      1.77078992     0.76763431     0.01114421
H      2.38403831    -0.26767462     0.86005556
O      0.65324394     2.31826720     0.05076133
H      0.75398745     2.17202712     1.08670688
H      1.71285261     2.21428246    -0.21653885
O     -1.99020278     1.32065322    -0.00367551
H     -1.84360865     0.27055228     0.05280852
H     -2.02449862     1.55553932     0.99228833
O     -1.84307516    -1.41384964    -0.08742937
H     -1.83930629    -1.58293559     0.98726126
H     -0.81780569    -1.31433743    -0.15488418
O      0.71195859    -2.19552918    -0.09653238
H      1.25719313    -1.44367147    -0.01065823
H      0.43200420    -2.39762249     0.82300534
O      2.45030665    -0.04366078     2.75841061
H      2.25402610     0.01387617     1.72529970
H      3.31768361     0.13413792     2.96481421
O      0.79777918     2.26586320     2.72126661
H     -0.22067162     1.96585611     2.65378353
H      1.04235899     2.24795518     1.75591892
O     -2.06806688     1.49450464     2.77604815
H     -1.88828307     1.49488127     1.83576311
H     -0.97249460     1.44814570     2.91510341
O     -1.93690361    -1.34030727     2.72702088
H     -0.80766535    -1.63448075     2.79839146
H     -2.14367240    -1.37950902     1.76233547
O      0.67471378    -2.23076118     2.69641537
H      0.65689615    -2.25536734     1.74462807
H      1.58585747    -2.01111095     3.11319717
30
water clusters ood_size frame=127
O      2.37394859     0.07593562     0.00662723
H      1.75195484     0.76595194     0.09293894
H      2.48891949    -0.29474373     0.83549802
O      0.73795603     2.25124134    -0.01410965
H      0.70279348     2.24350803     1.01729038
H      1.62867252     2.31275210    -0.18641462
O     -1.89336224     1.44043832    -0.06707331
H     -1.92402417     0.41756181    -0.02034504
H     -1.88783244     1.62559344     0.93633544
O     -1.95447306    -1.38049798    -0.03758627
H     -1.81456786    -1.42835013     0.92776558
H     -0.93901492    -1.35387406    -0.25152683
O      0.64946146    -2.20610646     0.01712761
H      1.28472725    -1.57090354     0.01604348
H      0.62229340    -2.44612402     0.90587051
O      2.35661904     0.00932449     2.66399716
H      2.27867920    -0.04142281     1.81624009
H      3.27974673     0.01337596     2.90337940
O      0.65416954     2.23123835     2.71059902
H     -0.12753658     1.83042926     2.74913544
H      0.87098683     2.27843287     1.74831269
O     -1.96502326     1.50988204     2.76661732
H     -1.90122826     1.29999312     1.70728522
H     -0.91944420     1.37765367     2.98935534
O     -1.84105698    -1.39708160     2.66890784
H     -1.03319000    -1.65124899     2.85449681
H     -2.22487464    -1.26492974     1.76425554
O      0.72067203    -2.32562357     2.73491151
H      0.71029301    -2.23029109     1.72896229
H      1.70409174    -2.26679948     2.95833779
30
water clusters ood_size frame=128
O      2.40641977    -0.06172838    -0.01122472
H      1.77798691     0.79650525     0.10152611
H      2.53397774    -0.18936379     1.04177029
O      0.69083846     2.25452792     0.16605741
H      0.77486782     2.25995439     0.99161452
H      1.60441879     2.26706487    -0.17021902
O     -1.93122019     1.40251712     0.06213999
H     -1.95767100     0.37300263    -0.02151432
H     -1.83912977     1.53094383     0.92784374
O     -1.94221287    -1.43014160     0.00515933
H     -1.84811921    -1.32970741     0.96131733
H     -0.93981782    -1.43169663    -0.17694998
O      0.66896526    -2.32027487     0.03922092
H      1.23463154    -1.54598746     0.15795168
H      0.45196524    -2.36769377     0.82477875
O      2.46570268     0.04792958     2.83023030
H      2.31963617    -0.02123262     1.82310233
H      3.31068065     0.01383092     2.99093891
O      0.73541341     2.28411654     2.62708124
H     -0.12700139     1.84777777     2.79733104
H      0.81175245     2.22553756     1.81904236
O     -1.79992890     1.34629343     2.65974167
H     -1.94050210     1.35182645     1.82164852
H     -0.93660263     1.43122193     2.82525430
O     -1.92262989    -1.29311935     2.81455243
H     -0.91149690    -1.78006258     2.68744176
H     -2.12187154    -1.30123293     1.75050261
O      0.87738368    -2.17692487     2.66430678
H      0.70900686    -2.30801575     1.71301753
H      1.67950033    -2.19065720     3.03803329
30
water clusters ood_size frame=129
O      2.48423456    -0.11734932     0.01060888
H      1.71512015     0.86484368    -0.04182706
H      2.51317066    -0.13378727     0.97813140
O      0.71501751     2.52433305    -0.02873560
H      0.62715658     2.21387280     0.87857977
H      1.82823666     2.08690192    -0.19200442
O     -1.93652030     1.27709212    -0.17346709
H     -1.61048320     0.37673771    -0.00408389
H     -1.83818219     1.78532374     0.91022034
O     -1.78045214    -1.47508218     0.05652588
H     -1.87526578    -1.44452162     0.84292117
H     -0.98873114    -1.31284749    -0.38759731
O      0.58968178    -2.20738488    -0.13097637
H      1.35803446    -1.62946712     0.12921200
H      0.47152845    -2.41413818     0.64986839
O      2.34313125    -0.02173968     2.68531322
H      2.36446417    -0.13067315     1.81525229
H      3.42173516     0.08801266     3.19228944
O      0.77035189     2.03561381     2.75849447
H     -0.21043959     1.99350824     2.76838970
H      1.03135167     2.37206182     1.91178085
O     -1.84703140     1.24539633     2.68475926
H     -1.96021885     1.28837946     1.88346429
H     -0.99266408     1.43027724     3.00144920
O     -2.08881134    -1.35944994     2.83067030
H     -1.08199400    -1.63992559     2.87260798
H     -2.22903814    -1.33775729     1.72017858
O      0.60686217    -2.07824134     2.60532981
H      0.72541101    -2.24287965     1.66406157
H      1.71405522    -2.18628899     2.77195260
30
water clusters ood_size frame=130
O      2.23839221    -0.04755086    -0.04370398
H      1.82952866     0.79483271    -0.00318137
H      2.52693735    -0.11696383     0.93375418
O      0.84961978     2.24288428     0.06238017
H      0.77480496     2.18652010     0.88495157
H      1.67630266     2.23284772    -0.25187446
O     -1.88193937     1.40058633     0.04275020
H     -1.90107613     0.34126951     0.00539177
H     -1.83017703     1.61182663     0.93167566
O     -1.86362312    -1.37053109     0.01274169
H     -1.91644421    -1.38410337     0.97132493
H     -0.94141219    -1.36908859    -0.18146865
O      0.68315959    -2.23538991    -0.01419514
H      1.26313091    -1.46806986    -0.01584987
H      0.57822061    -2.35807510     0.96782904
O      2.31870719    -0.04406560     2.70877901
H      2.38067536    -0.04026374     1.74914486
H      3.30218406    -0.05022609     2.97338801
O      0.77202470     2.24629250     2.78281534
H     -0.20654558     1.93731702     2.78013187
H      0.81278400     2.33538949     1.80075386
O     -1.94735939     1.35603794     2.75797775
H     -1.88092113     1.33894083     1.82304413
H     -1.00097521     1.38098526     2.96127632
O     -1.96041098    -1.44235906     2.69024984
H     -0.93648299    -1.63623392     2.72827060
H     -2.10776093    -1.28491331     1.76876731
O      0.80520130    -2.17706558     2.79174939
H      0.78571780    -2.22627559     1.73369550
H      1.70535174    -2.24662577     2.96831914
30
water clusters ood_size frame=131
O      2.30285617     0.05952296    -0.07445726
H      1.83259197     0.82487941    -0.01955758
H      2.58453705    -0.24493718     0.87344825
O      0.77239709     2.34500801    -0.05085030
H      0.80889122     2.11280655     0.98265411
H      1.68917148     2.31759082    -0.25706956
O     -1.76425702     1.41003267     0.07330087
H     -1.91465354     0.31956144     0.03536748
H     -1.89140392     1.69374754     0.95287603
O     -1.95271334    -1.39136997    -0.03375173
H     -2.01844863    -1.38683098     0.96208645
H     -1.07207412    -1.41945201    -0.27002217
O      0.72010739    -2.18721704     0.03797507
H      1.38662873    -1.36926164    -0.07169580
H      0.52726001    -2.40606547     0.95514177
O      2.42796638    -0.01837369     2.73332192
H      2.42389346     0.00856943     1.67854963
H      3.21566765    -0.00258147     3.05597898
O      0.80221994     2.41208131     2.72801172
H     -0.23311659     1.86804576     2.72566515
H      0.94269823     2.24421715     1.82508501
O     -1.85991606     1.48646482     2.72682678
H     -1.92991800     1.29692957     1.87698735
H     -0.87656466     1.45208865     2.99401033
O     -1.93162347    -1.31091777     2.74754300
H     -1.06905616    -1.71098744     2.56147229
H     -2.28686106    -1.33620816     1.82048043
O      0.67291647    -2.28434435     2.66499755
H      0.63884941    -2.29855267     1.67818830
H      1.72333218    -2.17283708     2.94525578
30
water clusters ood_size frame=132
O      2.27968571     0.07843610    -0.11788175
H      1.83036214     0.76699566     0.06420823
H      2.40801834    -0.22351466     0.95771586
O      0.80199555     2.39143247    -0.06525522
H      0.63190343     2.30008159     0.85604229
H      1.73291393     2.40777579    -0.00979346
O     -1.96252665     1.19291145     0.06445098
H     -1.97540602     0.47299947    -0.16202040
H     -1.78800366     1.55709298     1.10237830
O     -1.96661419    -1.33221589     0.02412677
H     -2.00381374    -1.40958735     0.90757410
H     -0.97453365    -1.30657057    -0.22529053
O      0.72080750    -2.35181478     0.01131545
H      1.27579789    -1.31159381     0.08238765
H      0.65153197    -2.46885380     0.79756151
O      2.41476859     0.03151833     2.56487403
H      2.21272947    -0.09980934     1.71244841
H      3.33252689     0.00108082     2.82137424
O      0.65406355     2.24292278     2.86063638
H     -0.25704942     1.93714263     2.84774756
H      0.95213677     2.44801236     1.87621880
O     -1.84886123     1.47934686     2.61100610
H     -2.12444572     1.39609285     1.62583488
H     -1.00129617     1.48428854     2.99932673
O     -1.75510739    -1.38314972     2.76795967
H     -0.90312114    -1.88424248     2.83889693
H     -2.16114728    -1.22908336     1.81600606
O      0.75761078    -2.10271783     2.76615217
H      0.65801311    -2.44338975     1.68292439
H      1.79575578    -2.09733267     2.89370030
30
water clusters ood_size frame=133
O      2.31776324    -0.04095162     0.01634535
H      1.76849619     0.75037779    -0.00363211
H      2.43779759    -0.22132198     0.96952672
O      0.81279723     2.29938151     0.02264975
H      0.71124548     2.18163689     0.90788296
H      1.63205266     2.21287030    -0.22934767
O     -1.91661876     1.42827966     0.05897286
H     -1.90855297     0.41231585     0.03777095
H     -1.91867045     1.63202164     0.99627530
O     -1.85950327    -1.45461010    -0.01845672
H     -1.86656666    -1.39084374     1.02523757
H     -0.91531163    -1.40328257    -0.22847582
O      0.69506666    -2.25762228    -0.04942847
H      1.24063918    -1.46155258    -0.02746640
H      0.65935117    -2.41918050     0.88326216
O      2.37228464     0.00276078     2.77606338
H      2.31098649     0.11573303     1.69808066
H      3.31959896    -0.00744165     2.93736629
O      0.68291614     2.25864786     2.68641865
H     -0.22559461     1.91522943     2.79053012
H      0.83161221     2.36266250     1.81049548
O     -1.91540343     1.34736803     2.72551605
H     -1.89243143     1.43904090     1.80446519
H     -0.97435586     1.31097953     2.96817598
O     -1.96267385    -1.35100039     2.76210342
H     -0.97866282    -1.65350364     2.69637211
H     -2.08878754    -1.36544295     1.86949653
O      0.71403520    -2.26581510     2.74590216
H      0.65395329    -2.26816871     1.74754129
H      1.61703684    -2.19639178     2.92565963
30
water clusters ood_size frame=134
O      2.44382179     0.14954461     0.08272713
H      1.83760349     0.63512474    -0.21995302
H      2.47240675    -0.16666732     0.80916894
O      0.69935031     2.34274268    -0.12275697
H      0.78369949     2.29125492     0.89088809
H      1.63767309     2.18756676    -0.19720450
O     -1.80701606     1.39619928    -0.04905561
H     -1.79843160     0.48980610    -0.01777149
H     -1.89616604     1.53346901     0.90093465
O     -1.94137572    -1.42760924    -0.06135163
H     -1.76288954    -1.37840206     1.01683846
H     -0.93099318    -1.47041843    -0.27933481
O      0.68999127    -2.23546855    -0.01711476
H      1.12371057    -1.53488503    -0.00400172
H      0.56033639    -2.41012396     0.87778643
O      2.34621189     0.02371749     2.74843112
H      2.23653639     0.07877850     1.75175057
H      3.34972526    -0.02899230     2.97809569
O      0.71299073     2.20489226     2.63553830
H     -0.27387895     1.88367172     2.72563197
H      0.99511997     2.24192084     1.74573874
O     -1.90898402     1.41147561     2.88366152
H     -1.89240801     1.35341388     1.74548128
H     -0.94613519     1.28546422     2.97095373
O     -1.97063079    -1.42332210     2.79507958
H     -0.87208123    -1.64865490     2.53976612
H     -2.18622986    -1.30510549     1.69453171
O      0.71000316    -2.23695467     2.64550867
H      0.72955882    -2.34419206     1.81259680
H      1.62864469    -2.14747587     2.91922700
30
water clusters ood_size frame=135
O      2.31516869    -0.04760164     0.06731946
H      1.72388602     0.96209007    -0.08178024
H      2.57010099    -0.29316377     1.01707485
O      0.69834256     2.15151135    -0.06286349
H      0.80697045     2.02588892     0.80280304
H      1.77903511     2.34452659    -0.06787281
O     -1.86501606     1.35382754     0.02104651
H     -1.90233536     0.49833288    -0.01240339
H     -1.69390394     1.64568616     1.05216759
O     -1.77742953    -1.32420541    -0.06042031
H     -1.90101148    -1.23987222     0.90560527
H     -0.92152071    -1.48227006    -0.30355294
O      0.54832047    -2.22125265    -0.07169701
H      1.26505363    -1.55001956    -0.02051973
H      0.68540974    -2.35053515     1.00108528
O      2.25220528     0.06092164     2.77259644
H      2.35605459    -0.08621891     1.87172638
H      3.23456047     0.12445676     2.90343706
O      0.77582397     2.05697453     2.72019841
H     -0.15117835     1.94253922     2.73670693
H      1.09867334     2.30852485     1.93933449
O     -1.91420416     1.19553734     2.63502303
H     -1.81965679     1.59862610     1.82241705
H     -0.92056736     1.51102171     2.89606349
O     -2.06643367    -1.46850010     2.63454931
H     -1.10849317    -1.57346963     2.73868617
H     -2.14080410    -1.32510217     1.75046661
O      0.72402810    -2.35044511     2.72281529
H      0.59048148    -2.25284691     1.88930758
H      1.62461563    -2.21125512     3.12459467
30
water clusters ood_size frame=136
O      2.32189565     0.02308589     0.06951634
H      1.78732992     0.74526853    -0.02409578
H      2.51580471    -0.18489945     1.00716850
O      0.67966167     2.26563331     0.00185092
H      0.70507787     2.21835201     0.92001030
H      1.60237853     2.25574895    -0.27875678
O     -2.03376109     1.33272086    -0.04120222
H     -1.92976452     0.41972012     0.00317961
H     -1.80690776     1.62684984     1.00253677
O     -1.85962559    -1.35344598     0.06850952
H     -1.91424449    -1.34832411     0.89535761
H     -1.08220830    -1.36767169    -0.29057975
O      0.67774550    -2.34947151    -0.02198482
H      1.26028775    -1.49857271     0.05751557
H      0.54682289    -2.39789825     0.97982996
O      2.33368012     0.05880118     2.75940975
H      2.36873090     0.00733796     1.74610345
H      3.26856674    -0.04869768     3.04291347
O      0.74126517     2.22843070     2.75585613
H     -0.15719896     1.97638297     2.69478812
H      0.93106151     2.21926012     1.86350956
O     -1.85997020     1.29234082     2.75165687
H     -1.91892400     1.48491254     1.76501010
H     -0.94385941     1.45870572     2.93467624
O     -1.84323098    -1.41380074     2.72000313
H     -1.00950941    -1.63760233     2.68199746
H     -2.12384447    -1.26212883     1.82392117
O      0.77415453    -2.19466005     2.70980652
H      0.64365517    -2.18919686     1.78728718
H      1.68669023    -2.21024664     2.92269549
30
water clusters ood_size frame=137
O      2.41397467    -0.05749944    -0.06220291
H      1.82315528     0.64483572     0.01840748
H      2.49325334    -0.18000917     0.91939113
O      0.77841064     2.22606899     0.04253040
H      0.86641824     2.32883229     1.01067409
H      1.70791835     2.17543016    -0.28847989
O     -2.00874301     1.44672192     0.03124284
H     -1.87252582     0.45027419    -0.00863520
H     -1.84373889     1.57373775     0.96236727
O     -1.90609026    -1.39182578     0.00204412
H     -1.83133371    -1.35551403     0.93820586
H     -0.97944603    -1.31357680    -0.29038178
O      0.74392440    -2.21363586    -0.04263700
H      1.26947444    -1.50890675     0.01610442
H      0.52935463    -2.42874973     0.85938015
O      2.19556710    -0.01263712     2.74088235
H      2.22874905    -0.06367945     1.60361391
H      3.26361876     0.02153814     3.00943017
O      0.71820307     2.28174239     2.74626271
H     -0.11307949     1.95306920     2.78130530
H      1.05688836     2.23331051     1.83301021
O     -1.90050837     1.49282753     2.59834198
H     -1.79815627     1.50343762     1.52244414
H     -0.88390469     1.42343531     3.03255501
O     -1.95789724    -1.49347367     2.71919553
H     -1.02156336    -1.85407361     2.86474394
H     -2.19029047    -1.36499709     1.82545852
O      0.74795462    -2.28490759     2.66272663
H      0.70726462    -2.24737359     1.71352916
H      1.60711869    -2.32207044     2.96206233
30
water clusters ood_size frame=138
O      2.31107545     0.20592224    -0.18123581
H      1.76246017     0.66333859     0.07187171
H      2.52681167    -0.09216979     0.87894142
O      0.76997035     2.02082794     0.06139721
H      0.77835144     2.28506116     1.02703125
H      1.71446135     2.31301669    -0.27562544
O     -2.06291348     1.34532105    -0.11958162
H     -2.06976873     0.41752645    -0.01502145
H     -1.86331754     1.59587703     0.91982353
O     -1.97838736    -1.20216440    -0.05224481
H     -1.82785552    -1.63229627     1.04856990
H     -0.96880091    -1.21003120    -0.22785172
O      0.70014816    -2.24829877     0.03736863
H      1.40661316    -1.57838923     0.00494783
H      0.74733769    -2.63878556     0.96068323
O      2.33571906    -0.06301780     2.77800520
H      2.43046779     0.02746590     1.83409941
H      3.17239430     0.13363494     2.90957362
O      0.61982342     2.17922609     2.67541918
H     -0.07024225     1.82398477     2.89973558
H      0.91457190     2.30910485     1.68269580
O     -1.86768155     1.40803450     2.64363837
H     -1.93809499     1.55813892     1.80502362
H     -0.97793741     1.45320595     2.77958195
O     -1.96638994    -1.12259246     2.73255507
H     -1.05122595    -1.64107346     2.77603472
H     -2.10814030    -1.34278540     1.69425095
O      0.97115340    -2.37580737     2.74462083
H      0.76976059    -2.15725981     1.53751385
H      1.64522173    -2.14916017     3.05386329
30
water clusters ood_size frame=139
O      2.31693632    -0.06250837     0.01938648
H      1.77944022     0.78448970     0.03291369
H      2.43861101    -0.29525327     0.99210176
O      0.70037695     2.32785294    -0.05764487
H      0.70591594     2.27641900     0.95846172
H      1.65468712     2.26334746    -0.31029171
O     -1.93262792     1.47408465     0.09201497
H     -1.89363285     0.43678417     0.04140692
H     -1.93527788     1.60627436     0.97962272
O     -1.90012586    -1.39569951    -0.03872520
H     -1.94275179    -1.40512041     0.88433255
H     -1.00471545    -1.42145666    -0.20420735
O      0.72730877    -2.18164442    -0.03150417
H      1.38835864    -1.48137744    -0.02789144
H      0.57827168    -2.42323111     1.02580222
O      2.30823819    -0.11183418     2.74621885
H      2.38762580     0.03041924     1.73296571
H      3.28373883     0.02541204     3.07138342
O      0.69995999     2.23801061     2.73549635
H     -0.13239967     1.96564092     2.69014873
H      0.95866726     2.29776330     1.82671522
O     -1.82346955     1.41696981     2.74745994
H     -1.88629118     1.36679817     1.73118276
H     -0.91139299     1.36971582     3.02970322
O     -1.85668037    -1.38660645     2.70956874
H     -1.00263834    -1.67754340     2.78889702
H     -2.12934929    -1.30314236     1.75811083
O      0.67860468    -2.22947674     2.71286564
H      0.70298840    -2.21332757     1.79555745
H      1.61095790    -2.24334818     2.99511224
30
water clusters ood_size frame=140
O      2.40798137     0.00700918    -0.04530225
H      1.85276318     0.82582509     0.03540202
H      2.53569493    -0.03687784     0.94391602
O      0.64312196     2.16558609     0.08045908
H      0.82897626     2.19225144     0.89067285
H      1.67321851     2.34550895    -0.25348251
O     -1.94683383     1.36343095    -0.07594042
H     -1.87040717     0.34748061     0.02779517
H     -1.96546679     1.66958471     0.95287071
O     -1.91193366    -1.29995214    -0.00428667
H     -1.96222172    -1.24218187     0.98639994
H     -0.88624872    -1.45907322    -0.31494772
O      0.78690891    -2.24268011     0.09511591
H      1.42966340    -1.48487995     0.17122430
H      0.59141655    -2.36249450     0.98431454
O      2.34337701     0.14161620     2.74411279
H      2.44699472    -0.04101908     1.86871058
H      3.38489993    -0.03288262     2.77814962
O      0.73419241     2.34064948     2.65421204
H     -0.21231223     1.91796376     2.77012348
H      0.91166634     2.31537487     1.81266779
O     -1.79180314     1.39545444     2.67547439
H     -1.88102749     1.44464453     1.77149780
H     -0.85129258     1.32696862     2.93099329
O     -1.80649664    -1.43671276     2.70115156
H     -0.93057022    -1.57970497     2.71810230
H     -2.11136047    -1.20331481     1.69639316
O      0.73300433    -2.15429192     2.69438920
H      0.79711767    -2.17147825     1.77801846
H      1.72125721    -2.21422039     2.99215985
30
water clusters ood_size frame=141
O      2.40213729    -0.25630633    -0.07869782
H      1.85811307     0.81061153     0.09354532
H      2.55530968    -0.33484459     0.80848345
O      0.74762682     2.42345564     0.13767201
H      0.53229920     2.26990370     0.86959325
H      1.76747456     2.26902959    -0.24873787
O     -1.93389095     1.38619575    -0.07040684
H     -1.86849339     0.32207399     0.02679258
H     -1.90017648     1.65220999     0.89953145
O     -2.07732598    -1.49719742    -0.10063008
H     -1.85719059    -1.33743826     0.92009014
H     -0.93796337    -1.42594572    -0.25260504
O      0.59731686    -2.29433897     0.03167322
H      1.25843818    -1.55525440    -0.09857056
H      0.32188583    -2.37732337     0.93875816
O      2.33734982     0.10782473     2.80560053
H      2.33887406    -0.02989857     1.66638663
H      3.41604217     0.09776714     2.83268185
O      0.66080893     2.23551502     2.75471647
H     -0.16717635     1.84843947     2.77631341
H      1.06573035     2.33120795     1.87678532
O     -1.93854620     1.20230971     2.78667957
H     -2.02200440     1.37718756     1.66791252
H     -0.94311223     1.32890913     2.78654091
O     -1.98198724    -1.36315618     2.80507534
H     -1.11118315    -1.55642525     2.73274422
H     -1.97761578    -1.13802264     1.82960670
O      0.73219883    -2.23762195     2.63821163
H      0.80612806    -2.13587987     1.65903249
H      1.61615961    -2.20283598     3.12373666
30
water clusters ood_size frame=142
O      2.36265036     0.00245762    -0.11189339
H      1.85085435     0.75009177     0.05489663
H      2.51418698    -0.17166215     0.95271596
O      0.63584807     2.28191838    -0.02974864
H      0.67887694     2.14481523     0.96461886
H      1.65085583     2.18153613    -0.37540379
O     -1.99803921     1.38783083     0.01535431
H     -1.90217308     0.47455822     0.04562033
H     -1.95884816     1.58307440     0.88331798
O     -1.94917981    -1.33169484    -0.02881800
H     -1.90189568    -1.50216117     0.88438610
H     -1.04434181    -1.38282128    -0.22810544
O      0.72303673    -2.21198795     0.02014628
H      1.31570934    -1.47341152     0.05757976
H      0.70191491    -2.43637205     0.93893300
O      2.33010986    -0.04620032     2.73771794
H      2.35339056    -0.04105234     1.88253369
H      3.24837268    -0.04794069     2.90687351
O      0.72538541     2.30907491     2.68341067
H     -0.14340353     1.90825673     2.72470230
H      1.00650513     2.41976932     1.82211622
O     -1.92468746     1.38790211     2.69363664
H     -1.92884683     1.38894126     1.72357382
H     -0.96786806     1.40265736     2.96829946
O     -1.91991645    -1.37768625     2.74819983
H     -0.95539263    -1.63838785     2.63609366
H     -2.16628231    -1.28426480     1.81791935
O      0.77286070    -2.30338963     2.72157596
H      0.77920010    -2.34410757     1.69817422
H      1.70765634    -2.26581602     2.94240005
30
water clusters ood_size frame=143
O      2.44754465    -0.01648865    -0.01422481
H      1.79144547     0.79058843     0.05510614
H      2.51883075    -0.11822757     0.94392972
O      0.78159373     2.29651795    -0.00039081
H      0.74739327     2.20568993     0.89976878
H      1.68133531     2.32780716    -0.32252799
O     -1.87042834     1.45709743     0.02815455
H     -1.89563912     0.43752019     0.02137498
H     -1.89459404     1.53617484     0.91339171
O     -1.88018708    -1.26390593     0.06541141
H     -1.88224560    -1.38850303     0.90707251
H     -1.00684393    -1.16614392    -0.19751605
O      0.79937636    -2.15798585     0.02740445
H      1.23572082    -1.47180767     0.10395610
H      0.62006520    -2.34149931     0.89352802
O      2.40214625    -0.03112064     2.75859911
H      2.29717354    -0.08472729     1.79317496
H      3.34008335    -0.08731593     2.88164829
O      0.78575967     2.20845304     2.65039243
H     -0.11637775     1.99238950     2.82800042
H      1.05288225     2.38836262     1.80346391
O     -1.95049911     1.34166148     2.72155689
H     -1.89862254     1.40214504     1.78557285
H     -1.10463239     1.40792789     2.93179210
O     -1.96730899    -1.30390408     2.74345519
H     -1.03659883    -1.60408412     2.64645117
H     -1.96328966    -1.29931866     1.94319694
O      0.69896610    -2.20552870     2.70544503
H      0.75153268    -2.21985868     1.72447133
H      1.61880244    -2.26033534     2.89922369
30
water clusters ood_size frame=144
O      2.27567588    -0.08698762    -0.11595767
H      1.70755718     0.81971251     0.29611053
H      2.65183002    -0.16985542     0.82193006
O      0.71424826     2.10674719     0.00013134
H      0.74778519     2.23000529     0.82488740
H      1.72067073     2.21920838    -0.19040552
O     -2.02220140     1.28261731    -0.04933479
H     -1.92569021     0.52810614     0.05720496
H     -2.01357037     1.55952106     0.82425910
O     -2.02404095    -1.43254801     0.03339573
H     -2.02316424    -1.47675734     1.06799872
H     -1.03259560    -1.40641257    -0.24326298
O      0.77009346    -2.37299589    -0.00276192
H      1.29000622    -1.25016112    -0.07861122
H      0.58445042    -2.49017449     0.91524894
O      2.31205095     0.06268628     2.76022375
H      2.14571468    -0.06446005     1.78935413
H      3.31224330    -0.02828385     3.12312510
O      0.69262275     2.09078544     2.58249404
H     -0.37507980     1.93680859     2.65256148
H      0.91844393     2.13971013     1.70683089
O     -1.96771267     1.40007131     2.58776041
H     -2.05924554     1.30284203     1.82925359
H     -0.95298310     1.58431302     2.98899776
O     -1.82649364    -1.45051669     2.82884667
H     -0.98988668    -1.65017689     2.65428448
H     -2.12787347    -1.30354018     1.82335805
O      0.62559419    -2.44198857     2.84527970
H      0.69415295    -2.34013971     1.88750012
H      1.69119719    -2.33708770     2.99556527
30
water clusters ood_size frame=145
O      2.34257495    -0.00034252    -0.03850786
H      1.79635333     0.72674298     0.10971681
H      2.45773011    -0.14016724     0.94148004
O      0.62792163     2.21147373    -0.03876351
H      0.70390300     2.21632147     0.95656297
H      1.72270500     2.18199468    -0.16822808
O     -1.90754785     1.36492691     0.09782699
H     -1.87383749     0.41732474     0.00431218
H     -1.92325622     1.63234351     0.89857211
O     -1.90870411    -1.39104877    -0.03786496
H     -1.88086390    -1.31713540     1.02211069
H     -0.97032326    -1.39132328    -0.20808225
O      0.80513843    -2.14868968     0.06167839
H      1.25437745    -1.36255349     0.07239425
H      0.61975928    -2.36905879     0.90449401
O      2.23106485     0.02133657     2.79243581
H      2.35930333     0.03753630     1.71881936
H      3.35258086     0.06290005     2.88660176
O      0.83147278     2.29751995     2.65779780
H     -0.25399556     1.97170719     2.67429560
H      0.99813753     2.31239188     1.69091037
O     -1.82569477     1.34934382     2.69146409
H     -1.84664617     1.39032005     1.87473745
H     -0.94110726     1.30366963     2.87886650
O     -1.89664698    -1.41663860     2.65381790
H     -0.98941541    -1.67099800     2.80544481
H     -2.09905345    -1.28495634     1.76700478
O      0.65250954    -2.20522480     2.69627554
H      0.68217349    -2.17775236     1.74857198
H      1.76760559    -2.18405327     3.05452341
30
water clusters ood_size frame=146
O      2.22373155    -0.01080608    -0.14182917
H      1.90223709     0.73651556     0.00398635
H      2.42838442    -0.18027572     0.92931769
O      0.79619900     2.16203571     0.06464776
H      0.69460856     2.18050185     0.86479233
H      1.79610188     2.18935175    -0.33605285
O     -1.84870495     1.38395686    -0.12986980
H     -1.96789585     0.45881470    -0.05059345
H     -1.80439190     1.65696667     0.88417880
O     -2.02442320    -1.31114837    -0.09913394
H     -1.92853696    -1.40519775     0.90748050
H     -0.91624043    -1.35089992    -0.29620282
O      0.72421953    -2.23357349     0.08651579
H      1.29814227    -1.36179443     0.01873766
H      0.63580702    -2.35420490     0.95698171
O      2.32716471     0.15858932     2.72126074
H      2.32682475    -0.08670324     1.81506714
H      3.04025266     0.04723675     3.03292564
O      0.77589237     2.38750323     2.75076806
H     -0.15084876     1.94824727     2.79467391
H      0.79813339     2.35748370     1.87492868
O     -1.91314251     1.34090691     2.73712238
H     -1.83453990     1.31982307     1.71537428
H     -0.91392879     1.38112363     2.97968912
O     -1.94375331    -1.36612007     2.77679340
H     -1.03132908    -1.73909619     2.79311717
H     -2.11423486    -1.36919146     1.81595491
O      0.80359193    -2.23925121     2.75808991
H      0.75294255    -2.23089561     1.70447274
H      1.76938404    -2.19813335     3.00414261
30
water clusters ood_size frame=147
O      2.23979880     0.02198434     0.02899612
H      1.72934628     0.83720938    -0.01963560
H      2.50031860    -0.29325950     0.94448589
O      0.79776907     2.18869856     0.06197436
H      0.64785426     2.28370717     0.98019269
H      1.55029811     2.25931482    -0.33469754
O     -1.85316682     1.25634769     0.00558652
H     -1.94879414     0.33749606     0.08260851
H     -1.87434972     1.61095856     0.97119222
O     -2.04283817    -1.42665154     0.00858653
H     -2.00632616    -1.22190644     0.89085687
H     -0.82544538    -1.43455445    -0.26636699
O      0.92158271    -2.24847116     0.00829511
H      1.40302972    -1.38678362     0.08760768
H      0.55253646    -2.41528867     0.97704888
O      2.35231181     0.08680788     2.75636373
H      2.37007356    -0.00845866     1.69314691
H      3.14370769    -0.08761141     2.99832998
O      0.76795771     2.35756850     2.73342604
H     -0.32172517     1.92641152     2.62593776
H      0.90393888     2.39549999     1.67896826
O     -2.11881096     1.37551992     2.75242190
H     -1.80707405     1.50814599     1.72915628
H     -1.02400041     1.27099897     2.97591748
O     -2.04962155    -1.52178966     2.73002122
H     -1.18187708    -1.62236895     2.71050186
H     -2.05017150    -1.26501543     1.62387669
O      0.72020659    -2.21058661     2.82053821
H      0.82225873    -2.22226753     1.81918724
H      1.84383132    -2.16678658     3.07178758
30
water clusters ood_size frame=148
O      2.31951737     0.00196902     0.04245390
H      1.78750788     0.68804639     0.06246163
H      2.48685146    -0.25653408     0.90763163
O      0.77230241     2.27176982     0.04533900
H      0.67693174     2.16236470     0.97555712
H      1.65700675     2.20057949    -0.21614382
O     -1.94120014     1.44170900     0.03422844
H     -1.92584109     0.46487633     0.06823163
H     -1.87862256     1.64886246     0.89197889
O     -1.93818160    -1.30080164    -0.13166646
H     -1.90012665    -1.41866675     0.93407481
H     -1.11652281    -1.43640652    -0.30109361
O      0.71351965    -2.20286279     0.00501156
H      1.25321404    -1.44726558    -0.11534474
H      0.62619367    -2.51288107     1.02430050
O      2.34726503     0.00629272     2.71771624
H      2.27796674     0.06588722     1.75839127
H      3.23798822     0.04234086     2.91037422
O      0.75584087     2.18773340     2.66768507
H     -0.22170409     1.90879884     2.66413266
H      0.92922274     2.34379725     1.78454873
O     -1.93119453     1.40443717     2.72680346
H     -1.87896229     1.43432056     1.75363971
H     -0.98727381     1.37144996     2.91795671
O     -1.89151349    -1.39651814     2.75626031
H     -1.00647926    -1.71475615     2.69370228
H     -2.19962938    -1.26505199     1.73180104
O      0.67762453    -2.23117660     2.78453295
H      0.79369836    -2.33460435     1.71387166
H      1.63510927    -2.21683143     2.94230243
30
water clusters ood_size frame=149
O      2.45037532    -0.05319127    -0.01076834
H      1.58998393     0.65375576    -0.11351114
H      2.52239111    -0.08576089     0.90604965
O      0.75369180     2.25365172     0.01756326
H      0.82735948     2.18856285     0.85180407
H      1.72417991     2.30983498    -0.16263149
O     -1.85002574     1.37114205    -0.13539633
H     -1.93993184     0.48018548     0.00753486
H     -1.90678595     1.70328534     0.95166374
O     -1.93777778    -1.24561635     0.04241311
H     -1.84979925    -1.46221758     0.92337721
H     -1.04470164    -1.47721039    -0.21419030
O      0.75617420    -2.27785780    -0.06104191
H      1.42423112    -1.44485322    -0.01010313
H      0.61097832    -2.49024046     0.90929378
O      2.50394615     0.00112847     2.65244355
H      2.41382109    -0.06241828     1.82320299
H      3.28671593    -0.01191082     2.94065952
O      0.77033172     2.22551309     2.74759706
H     -0.19148645     1.92619982     2.60109588
H      0.91411628     2.36848773     1.77701471
O     -1.90680866     1.41970433     2.68963051
H     -1.91762243     1.34576181     1.72191894
H     -0.98804680     1.28302603     2.92827377
O     -1.95353529    -1.29171100     2.73267822
H     -1.06575163    -1.61776970     2.67409666
H     -2.18346676    -1.33483050     1.89870474
O      0.76770533    -2.17771965     2.65944081
H      0.80100857    -2.25654595     1.58464769
H      1.63232619    -2.28275721     2.97210441
30
water clusters ood_size frame=150
O      2.32412251    -0.10748159     0.07285762
H      1.91868648     0.76846964    -0.00990879
H      2.53023274    -0.14688750     0.96879516
O      0.82461980     2.04143971    -0.16267628
H      0.74184656     2.26011764     0.94382359
H      1.78418827     2.35414018    -0.25163449
O     -1.96544381     1.29532725     0.15434293
H     -1.86964618     0.41526608    -0.21652928
H     -1.87785420     1.67543594     0.94715903
O     -1.76107977    -1.26179967    -0.04170109
H     -1.88240495    -1.57347131     1.01239902
H     -0.94450598    -1.41104145    -0.16673383
O      0.82871719    -2.04920239     0.28704205
H      1.17522109    -1.44831436    -0.04666468
H      0.61282984    -2.39529572     0.92088732
O      2.28074782    -0.15272817     2.64318638
H      2.51692658    -0.03182126     1.71162245
H      3.29055610    -0.13744651     2.94412467
O      0.86564667     2.24926442     2.73486026
H     -0.07680041     1.97968819     2.63040026
H      0.90528406     2.23799295     1.79336001
O     -1.98360745     1.35983365     2.69560657
H     -1.87750327     1.31446767     1.53871541
H     -0.91679736     1.48726843     2.91390422
O     -2.07642770    -1.24574163     2.79349318
H     -0.88764007    -1.59875851     2.94041233
H     -2.28687066    -1.47457173     1.69537123
O      0.79840715    -2.21286023     2.75101036
H      0.86853688    -2.15700635     1.76201424
H      1.83401118    -2.21656118     2.91155678
30
water clusters ood_size frame=151
O      2.40392312    -0.03477633    -0.00815550
H      1.83368672     0.80887489     0.03763659
H      2.48382534    -0.26151907     0.96155896
O      0.67361678     2.26509515     0.07950113
H      0.64686966     2.30620621     0.95672784
H      1.63179457     2.28656274    -0.24497682
O     -2.01071281     1.32559554     0.07182405
H     -1.93288148     0.36530998     0.04561309
H     -1.84676372     1.64326446     0.83662519
O     -1.85842962    -1.34718000     0.01464952
H     -2.02975049    -1.30438973     0.90233530
H     -1.00822353    -1.44901241    -0.28384802
O      0.71229207    -2.24963151    -0.01019880
H      1.22023892    -1.44097153    -0.03249915
H      0.56956012    -2.34487627     0.87487341
O      2.31876219     0.04994874     2.78002479
H      2.38977260     0.01774773     1.66691116
H      3.18559554     0.03567372     2.93793167
O      0.72703821     2.34258971     2.73142388
H     -0.24132425     1.90740832     2.63919810
H      1.02085610     2.36769913     1.73873630
O     -1.96417949     1.40489878     2.65702480
H     -1.86744291     1.40271535     1.81524225
H     -0.91843860     1.36500545     3.05244495
O     -1.90907527    -1.44827856     2.69017572
H     -0.91828818    -1.67605202     2.71289770
H     -2.11823719    -1.30873730     1.81887816
O      0.68372756    -2.19994795     2.71819774
H      0.76028435    -2.24837778     1.72988661
H      1.66147534    -2.24354005     2.92543224
30
water clusters ood_size frame=152
O      2.35877987     0.07607156     0.03371622
H      1.87443336     0.70053949    -0.00091934
H      2.52724319    -0.16301145     0.96510310
O      0.79146661     2.22939269     0.03640261
H      0.76483306     2.15602475     1.00796129
H      1.60210474     2.18974629    -0.35968983
O     -1.86900682     1.40951707    -0.05079771
H     -1.98074326     0.36110773     0.06503206
H     -1.81852913     1.58619356     0.88768137
O     -1.96764585    -1.32869074    -0.07221452
H     -1.88438312    -1.41769499     0.84237024
H     -0.95928829    -1.46114170    -0.22377351
O      0.76860772    -2.16994439     0.01277751
H      1.29720643    -1.55804797    -0.00955967
H      0.51809072    -2.39099963     0.94502020
O      2.34205519    -0.10868256     2.79577966
H      2.38155421    -0.01916859     1.72163583
H      3.36037778     0.15250418     2.95204115
O      0.74737562     2.33228599     2.75991603
H     -0.17466943     1.91051572     2.75378260
H      1.01486045     2.34560403     1.73994990
O     -1.90406147     1.33434101     2.71185253
H     -1.76929468     1.41757418     1.81343713
H     -0.95824266     1.33328976     3.14745427
O     -1.90940329    -1.36634774     2.67234494
H     -0.95822440    -1.55103435     2.79816605
H     -2.04007880    -1.37966834     1.84059341
O      0.68089448    -2.23736385     2.66407859
H      0.69781394    -2.14819213     1.80690875
H      1.64803392    -2.28189860     3.07491740
30
water clusters ood_size frame=153
O      2.38078660     0.08805445    -0.01057496
H      1.89756754     0.77155751     0.10484648
H      2.59594117    -0.15559274     0.91868799
O      0.74718929     2.30494874    -0.06602167
H      0.57017138     2.17790907     1.03112228
H      1.49560640     2.23970740    -0.26262517
O     -1.84627603     1.44335535     0.19959689
H     -1.97537382     0.43893975     0.08292740
H     -1.79084823     1.61597857     1.00990626
O     -1.74373615    -1.40636606    -0.03260697
H     -2.05551974    -1.46377415     0.98921314
H     -0.97695272    -1.40040633    -0.08735444
O      0.76250802    -2.21626095     0.02462583
H      1.34323020    -1.46386897     0.13433765
H      0.54455380    -2.35323266     0.91284100
O      2.37661946     0.13214156     2.77112208
H      2.47113315     0.02896312     1.82436990
H      3.35094710     0.07760513     2.98914099
O      0.84039874     2.34410253     2.91695962
H     -0.07883729     1.69610906     2.71948639
H      0.95800072     2.47811497     1.72137572
O     -1.98101655     1.32843507     2.80356381
H     -1.65729815     1.18412440     1.75447537
H     -1.04601105     1.36687209     2.88246315
O     -1.67057258    -1.29315796     2.72524390
H     -0.99268676    -1.63131596     2.55845661
H     -2.12789664    -1.13135348     1.72574027
O      0.72372108    -2.24254194     2.61735227
H      0.86710653    -2.16982646     1.66986903
H      1.59011918    -2.30366124     2.79920245
30
water clusters ood_size frame=154
O      2.35901912    -0.06919084     0.02413730
H      1.84923014     0.80047958     0.08020898
H      2.44188929    -0.19900699     0.93274201
O      0.80633961     2.24063447    -0.02144255
H      0.63836498     2.20718932     0.86775637
H      1.75376093     2.20577316    -0.30677866
O     -1.80833792     1.39160821     0.01031862
H     -1.88753348     0.37156493    -0.06046340
H     -1.97644509     1.49611629     0.93487872
O     -1.84428848    -1.37283138    -0.03176130
H     -1.79101125    -1.33543266     0.95995415
H     -0.97679957    -1.32389573    -0.30806492
O      0.68524359    -2.20834265     0.03226611
H      1.29709560    -1.48488967     0.08304592
H      0.61046961    -2.41716122     0.89853063
O      2.37469346    -0.02313280     2.69854342
H      2.36069139    -0.06239249     1.80355231
H      3.26081133    -0.02089998     2.97275387
O      0.77015275     2.26798080     2.64994661
H     -0.25251488     1.88432450     2.71267753
H      0.93270502     2.26877990     1.77150296
O     -1.96858460     1.39518906     2.78915573
H     -1.92291111     1.43255988     1.80204746
H     -0.99892954     1.44147796     2.87800121
O     -1.96356189    -1.34486964     2.75383151
H     -0.99406467    -1.67045826     2.76241625
H     -2.20037880    -1.29466209     1.65169801
O      0.76319402    -2.26451198     2.77154959
H      0.72990473    -2.22825171     1.86244123
H      1.60657927    -2.20913345     2.91242750
30
water clusters ood_size frame=155
O      2.30850260     0.04873817    -0.10380756
H      1.79059804     0.80148786     0.00271921
H      2.40061843    -0.16632084     0.88884751
O      0.76725197     2.25185397    -0.03166457
H      0.71576191     2.24478010     0.93454598
H      1.63517035     2.27278827    -0.28622722
O     -1.96018242     1.30640245     0.03990462
H     -1.95480701     0.34931261     0.08300634
H     -1.95450768     1.50642394     0.82865115
O     -1.89724446    -1.37881532     0.03645503
H     -1.90353317    -1.35423109     1.09090092
H     -1.02544053    -1.31698890    -0.34511417
O      0.94894846    -2.36461505     0.01038640
H      1.22203421    -1.53909815     0.00263646
H      0.52154329    -2.34513362     0.78530089
O      2.44991933     0.01313404     2.65477087
H      2.36192999    -0.07154395     1.76855543
H      3.33493791    -0.02471694     3.06108099
O      0.72631558     2.26535048     2.69448052
H     -0.09579115     1.85339825     2.72869260
H      0.92648070     2.31880830     1.88992138
O     -1.86533314     1.44607219     2.66943234
H     -1.87768864     1.36987796     1.66446348
H     -0.98209221     1.29269371     2.86552034
O     -1.91269370    -1.39512358     2.77886738
H     -0.93302360    -1.56365030     2.62032384
H     -2.21809239    -1.26962906     1.68593877
O      0.70911053    -2.31790399     2.61673785
H      0.81060065    -2.30626153     1.72446049
H      1.71524503    -2.22506433     3.00763397
30
water clusters ood_size frame=156
O      2.36807689    -0.05904330     0.03693119
H      1.77142048     0.76177588     0.13188951
H      2.56984882    -0.19633472     0.98949837
O      0.75363946     2.19992709     0.11985340
H      0.68887351     2.08660503     1.05892909
H      1.52450353     2.36900958    -0.19111345
O     -1.67587717     1.37068617    -0.05071480
H     -1.84602495     0.45829914     0.13688521
H     -1.98021454     1.83059941     0.95723132
O     -1.78790250    -1.57953880    -0.08174096
H     -1.99300301    -1.46562747     1.14085292
H     -0.99054049    -1.35755449    -0.29140405
O      0.61803253    -2.31806740    -0.14725307
H      1.19830978    -1.46394586    -0.23772024
H      0.51695674    -2.47988619     1.04726997
O      2.24215163     0.08675514     2.59443052
H      2.36424684    -0.04331256     1.72192588
H      3.38572988     0.01480015     3.00530302
O      0.72414418     2.43835152     2.83942602
H     -0.07329611     1.91627846     2.60038875
H      0.94307431     2.47443174     1.70793615
O     -1.89537789     1.35689009     2.85394648
H     -2.04283575     1.39475343     1.77805181
H     -1.00259280     1.25680667     3.04583939
O     -2.04852456    -1.43641989     2.71678399
H     -1.00619262    -1.66561163     2.55220479
H     -2.24417704    -1.36786297     1.75118597
O      0.89073360    -2.27188131     2.94875862
H      0.69174091    -2.09347486     1.85990678
H      1.67464079    -2.18724609     3.08693784
30
water clusters ood_size frame=157
O      2.36184731     0.04148593    -0.02632493
H      1.79729177     0.74521201     0.04130283
H      2.46687004    -0.21506390     0.96856865
O      0.66824306     2.25328923    -0.10227304
H      0.70595281     2.20350027     1.00243672
H      1.62505688     2.18705685    -0.26556060
O     -1.88559221     1.44363050     0.05111248
H     -1.82411696     0.37439026    -0.00045159
H     -1.94203589     1.64909884     0.90844283
O     -1.96180385    -1.33523503    -0.03505712
H     -1.80697082    -1.36703060     0.80512700
H     -0.95117722    -1.40806792    -0.18414821
O      0.73403881    -2.25913030    -0.03389580
H      1.27553869    -1.50220667     0.09440584
H      0.57164686    -2.33419085     1.01317318
O      2.31459905    -0.08103148     2.71197779
H      2.33556377     0.06315080     1.80629096
H      3.24827318    -0.10111685     2.88354350
O      0.68031350     2.32578474     2.74579836
H     -0.16000179     1.96404954     2.74767399
H      1.02090756     2.26296152     1.86990746
O     -1.91905707     1.33697744     2.74628345
H     -1.88840925     1.37387640     1.80291402
H     -0.92744187     1.31745682     3.03440401
O     -1.91781849    -1.34280397     2.67705446
H     -0.96091745    -1.76376241     2.77726103
H     -2.13016135    -1.26792036     1.79665978
O      0.75728244    -2.21078075     2.71814458
H      0.64914140    -2.22076511     1.73914355
H      1.67340981    -2.20821786     2.99699415
30
water clusters ood_size frame=158
O      2.18935272     0.03428873     0.01944799
H      1.74420998     0.83363727    -0.02726059
H      2.41539569    -0.17908537     0.93184393
O      0.62834034     2.30854565     0.05228296
H      0.56844873     2.27900877     0.99484340
H      1.71887861     2.26318126    -0.25227744
O     -1.95465646     1.42767704     0.02386594
H     -1.76602602     0.42630074    -0.16153755
H     -1.94549231     1.65857696     0.97806798
O     -1.89225180    -1.39775372    -0.00925625
H     -1.85645562    -1.35950026     0.98238641
H     -0.97215115    -1.35515676    -0.24711561
O      0.74820012    -2.21380824    -0.05454281
H      1.49652363    -1.44384066    -0.05506842
H      0.65574788    -2.44350269     0.86240121
O      2.34610610     0.01017285     2.73326430
H      2.28856237    -0.05781055     1.83359702
H      3.40213013     0.00544094     2.96334099
O      0.79036076     2.17219019     2.65376608
H     -0.13150982     1.93058843     2.71530714
H      1.03836493     2.26755094     1.89642681
O     -1.86246584     1.39344782     2.61603688
H     -1.90181532     1.33475034     1.71663653
H     -0.97040208     1.36150474     2.95069259
O     -1.84666364    -1.40471956     2.72504666
H     -1.00813737    -1.69636749     2.82646491
H     -2.02694534    -1.36597126     1.90661840
O      0.70367318    -2.18391644     2.73209775
H      0.73680762    -2.24621776     1.78255929
H      1.70568643    -2.09563823     3.00248709
30
water clusters ood_size frame=159
O      2.56428021     0.20564189     0.08843968
H      1.93024104     0.76213221     0.12227687
H      2.53835642    -0.10795201     0.96670920
O      0.73090465     1.94308029    -0.13519157
H      0.71252296     2.22231544     0.76485976
H      1.50827175     2.04970180    -0.11648783
O     -1.93185322     1.23370444     0.11983658
H     -1.89279511     0.22232857     0.04701917
H     -1.79869776     1.73157496     0.87868072
O     -1.91976752    -1.36585886    -0.02541980
H     -1.98392449    -1.34542303     0.99264101
H     -0.82661277    -1.24563218    -0.22371402
O      0.68074033    -2.25366116     0.03800429
H      1.40565872    -1.54917672    -0.05624326
H      0.56900149    -2.49900966     0.86279142
O      2.44535086    -0.05295946     2.68644002
H      2.42438691    -0.05936317     1.75571161
H      3.30426459    -0.18963372     2.87122356
O      0.72223288     2.25957653     2.77109764
H     -0.33990925     1.89153393     2.52322598
H      0.97199407     2.24548924     1.70019801
O     -1.79588767     1.32801907     2.71488188
H     -1.71999207     1.31353599     1.81248737
H     -1.03119216     1.46524967     2.86477388
O     -1.87160208    -1.33481141     2.77653621
H     -1.00468994    -1.71599287     2.56191456
H     -2.18897640    -1.26296933     1.77127514
O      0.67002554    -2.21938690     2.68947037
H      0.70810648    -2.08292618     1.88947463
H      1.66388182    -2.32331948     2.86859282
30
water clusters ood_size frame=160
O      2.37665668     0.05000406     0.04914420
H      1.77542133     0.74213192    -0.05786976
H      2.53681029    -0.20151985     0.87165849
O      0.73897459     2.27502188     0.05618349
H      0.72265189     2.17250492     0.90572795
H      1.57939428     2.27110945    -0.23152153
O     -1.86844398     1.43425528     0.00161719
H     -1.85725912     0.39311381    -0.05321808
H     -1.84405435     1.63458860     0.94012498
O     -1.86364293    -1.33910452    -0.02380292
H     -1.90129788    -1.43090516     0.93827477
H     -1.00358939    -1.40153309    -0.27062975
O      0.74867375    -2.31646304     0.03754368
H      1.36047329    -1.35046708     0.04453979
H      0.65265632    -2.42466811     0.88333943
O      2.27511319     0.04390050     2.59665309
H      2.31030853    -0.02652776     1.72927110
H      3.29467515     0.00614005     2.96096966
O      0.65780923     2.22892402     2.68430055
H     -0.17459515     1.92180169     2.76211562
H      0.94533842     2.28057487     1.72698762
O     -1.94549656     1.46779479     2.63426509
H     -1.87633576     1.42851731     1.85457822
H     -0.93468815     1.33879089     3.00525241
O     -1.94713500    -1.40182938     2.68915226
H     -1.00068717    -1.66643269     2.73069456
H     -2.19906754    -1.34082366     1.76820819
O      0.83173272    -2.14957970     2.66060096
H      0.74446996    -2.28897656     1.82080770
H      1.69043502    -2.17629034     2.90483679
30
water clusters ood_size frame=161
O      2.40595017    -0.02135978    -0.00800276
H      1.76491276     0.72181767    -0.01972642
H      2.55178761    -0.24123863     0.94732257
O      0.75899541     2.19773227     0.03951745
H      0.73838754     2.16726734     0.89710566
H      1.61080347     2.12257931    -0.14407093
O     -1.76678609     1.45897659     0.06979663
H     -1.90485332     0.37490927     0.08321527
H     -2.02494575     1.68380525     0.78475098
O     -1.91637946    -1.42206625     0.04403785
H     -2.00818626    -1.32997741     0.96825806
H     -1.05054147    -1.46124202    -0.26321721
O      0.75676315    -2.18591786    -0.02557276
H      1.26468541    -1.44350513    -0.00333117
H      0.59633826    -2.25219831     0.94360502
O      2.31717051    -0.17076191     2.55090763
H      2.39094922    -0.07091557     1.77327567
H      3.19872209     0.03471458     3.00827334
O      0.69435941     2.23151093     2.80978235
H     -0.08102226     1.84659236     2.83125618
H      0.93993053     2.21493966     1.73323132
O     -1.96432229     1.43066882     2.67399739
H     -1.85858283     1.40393409     1.78336219
H     -0.91342665     1.51285059     2.94894768
O     -1.91219838    -1.17499248     2.71739031
H     -1.08151613    -1.78042080     2.54855781
H     -2.07398066    -1.23288842     1.81589128
O      0.81479297    -2.23789267     2.78244190
H      0.62941367    -2.34645048     1.73630341
H      1.66803251    -2.21804345     2.80929876
30
water clusters ood_size frame=162
O      2.24131552    -0.16431028    -0.15678586
H      1.61808310     0.83272116     0.09989264
H      2.55195327    -0.09495243     0.80555115
O      0.89646893     2.27355712    -0.08805750
H      0.83516396     2.34323125     0.89594359
H      1.79454873     2.38554509    -0.44694682
O     -1.80315590     1.39401611     0.04460433
H     -1.72829639     0.48792857    -0.04523294
H     -1.89266130     1.67035029     0.92857740
O     -1.89880112    -1.27032715     0.08319457
H     -1.84407461    -1.39595766     1.00107592
H     -0.88383781    -1.52519316    -0.18064139
O      0.51761321    -2.30847180     0.05509681
H      1.09767486    -1.45224808     0.08363906
H      0.63840801    -2.73021329     1.01286132
O      2.44214855    -0.12165007     2.70076776
H      2.36231150     0.21057611     1.79412723
H      3.17036006    -0.08629223     3.09230746
O      0.78040511     2.34970133     2.73262210
H     -0.16526566     1.92439932     2.73764743
H      0.92349153     2.25658401     1.65151303
O     -1.89062144     1.27812291     2.52276832
H     -2.14340089     1.45174726     1.72353706
H     -1.03202473     1.36888240     3.03063778
O     -1.90834800    -1.30851887     2.69505399
H     -0.99302374    -1.63926684     2.74281650
H     -2.15914818    -1.31294891     1.59734806
O      0.65991302    -2.25780128     2.88248322
H      0.63814246    -2.30181775     1.84372126
H      1.52286495    -2.15254652     2.90587147
30
water clusters ood_size frame=163
O      2.37877387    -0.09190980     0.05795664
H      1.70856090     0.77511486    -0.04443603
H      2.54124192    -0.15522879     0.91932027
O      0.65611649     2.17713845     0.00508669
H      0.76108428     2.24535137     1.07687786
H      1.60858201     2.22036483    -0.29220246
O     -1.88211624     1.38079557    -0.02842604
H     -1.92072441     0.45541026    -0.00304859
H     -1.95157341     1.66088464     0.87064189
O     -1.97212117    -1.37961303     0.10847573
H     -1.86813697    -1.33300156     0.96377909
H     -0.97611822    -1.36532705    -0.22726515
O      0.72209216    -2.26266704    -0.07945720
H      1.28983452    -1.53766040    -0.00455727
H      0.55325514    -2.44729552     0.99581036
O      2.30870450    -0.03570548     2.72248950
H      2.34534996     0.02180262     1.70149727
H      3.12364533    -0.03528386     2.90332017
O      0.76221209     2.26880057     2.80078813
H     -0.12416568     1.80855256     2.70676489
H      0.96277659     2.39153205     1.79000808
O     -1.90297247     1.37567028     2.69201830
H     -1.89370236     1.43182662     1.73018170
H     -0.94757536     1.31941676     2.93166796
O     -1.90988492    -1.43883163     2.74873130
H     -0.98326470    -1.68428302     2.67742554
H     -2.17249711    -1.35550412     1.78345387
O      0.73629355    -2.23289861     2.67605165
H      0.82997005    -2.21162002     1.80569947
H      1.59810201    -2.15360458     2.98154861
30
water clusters ood_size frame=164
O      2.49612750     0.05769589     0.02492013
H      1.78318772     0.72774482    -0.04910931
H      2.25710261    -0.15944262     0.89874519
O      0.89611823     2.28708341     0.06254696
H      0.78542816     2.34725035     1.01004850
H      1.61555855     2.16487029    -0.23159283
O     -1.92437267     1.42203974     0.02311276
H     -1.71350026     0.44838670     0.09409998
H     -1.90003434     1.58043132     0.99479071
O     -2.01357255    -1.34029954    -0.12929161
H     -1.93736799    -1.35956972     1.07142278
H     -1.05767617    -1.29720551    -0.31432963
O      0.70811769    -2.21685205     0.06125565
H      1.38884745    -1.43154690     0.15399702
H      0.66040821    -2.48482508     0.86709969
O      2.40708193    -0.05623824     2.85742287
H      2.37888868     0.03123692     1.76537654
H      3.26958966     0.00612796     2.90773122
O      0.68088101     2.20492257     2.72216740
H     -0.22188147     1.95907575     2.78209300
H      0.97439785     2.27578215     1.85687193
O     -1.88123086     1.36528570     2.66404662
H     -1.95853726     1.32031696     1.87855732
H     -0.94265370     1.46644314     2.96261563
O     -1.90488872    -1.42186847     2.74888163
H     -0.92589324    -1.65851190     2.76605312
H     -2.16437538    -1.23068712     1.82281100
O      0.69833513    -2.14838659     2.58575545
H      0.74200347    -2.32852018     1.74958295
H      1.62852479    -2.27339728     3.10040850
30
water clusters ood_size frame=165
O      2.45298017    -0.03652207    -0.07142995
H      1.67456538     0.66865783    -0.05733097
H      2.35980701    -0.33316512     0.85096701
O      0.64225736     2.28974512    -0.10721489
H      0.68236483     2.38477738     1.11184697
H      1.34429015     2.28859681    -0.39476827
O     -2.04245355     1.46265115    -0.05115668
H     -1.93054954     0.23092407     0.04860372
H     -1.92136976     1.78286633     0.89307378
O     -2.00748437    -1.41111457     0.00602074
H     -2.05905447    -1.34845972     0.98988473
H     -1.06121665    -1.16317413    -0.30680069
O      0.82611152    -2.18896129     0.06352582
H      1.31708477    -1.59555958    -0.05213372
H      0.50776472    -2.37073378     0.81877674
O      2.40341108     0.01365461     2.78652505
H      2.14635882     0.13218235     1.70316683
H      3.27955941     0.05645299     3.13068483
O      0.64006839     2.18298372     2.79946370
H     -0.12061295     1.96760185     2.70312439
H      0.84693151     2.25076858     1.87368440
O     -1.96173825     1.32742374     2.69180510
H     -1.99339412     1.47366689     1.75185393
H     -1.04433988     1.32895125     3.00999865
O     -1.91865777    -1.37548010     2.72017274
H     -0.98751050    -1.52771724     2.66616261
H     -2.28807707    -1.27721327     1.91354554
O      0.80940502    -2.18556917     2.71046775
H      0.68369192    -2.00550126     1.69583155
H      1.62690747    -2.33898415     3.03998388
30
water clusters ood_size frame=166
O      2.31437132     0.03401220    -0.05212384
H      1.79333404     0.82487862     0.07904583
H      2.48275591    -0.21761904     0.84224568
O      0.68755984     2.18330972    -0.07940164
H      0.73614020     2.23928169     0.93535963
H      1.60563456     2.28666319    -0.24222074
O     -1.96375766     1.21577431    -0.07691273
H     -1.84516997     0.41770319     0.08446900
H     -1.90133213     1.61537954     0.87185298
O     -1.83611677    -1.40889762     0.02948852
H     -1.93089305    -1.39189638     1.02283555
H     -1.01195087    -1.43323992    -0.30725716
O      0.80790444    -2.24611693    -0.07733341
H      1.27372479    -1.44896909     0.10361008
H      0.52376096    -2.37430607     0.90287175
O      2.36004321     0.05561692     2.62825065
H      2.38984105    -0.12272055     1.80122860
H      3.29714160    -0.00088822     2.98298180
O      0.82159680     2.19503809     2.70015074
H     -0.06195257     1.98786036     2.76971029
H      0.87690445     2.30170816     1.71612783
O     -1.95170403     1.38089903     2.63057691
H     -1.90393949     1.39051626     1.80270410
H     -0.89832439     1.40540979     2.96997991
O     -1.96675707    -1.39720119     2.78204494
H     -0.94669599    -1.69542294     2.65689070
H     -2.14910006    -1.26013477     1.71805526
O      0.74928389    -2.24573206     2.73082769
H      0.76109574    -2.18615233     1.70009317
H      1.58852850    -2.14429447     2.92606367
30
water clusters ood_size frame=167
O      2.36647492     0.04051348    -0.09714059
H      1.82159514     0.75509956    -0.01138612
H      2.55527192    -0.21233944     0.96941595
O      0.61876208     2.09896527    -0.00524095
H      0.67914864     2.23791743     1.12315481
H      1.66359066     2.08672239    -0.13033696
O     -1.86584063     1.30194953     0.02893509
H     -1.81582357     0.44991465     0.00959256
H     -1.93300618     1.67860433     0.95351238
O     -1.97664465    -1.43727109     0.01489287
H     -2.01048250    -1.39963924     0.94771538
H     -0.92214616    -1.41347785    -0.32353350
O      0.88463584    -2.26367481    -0.00238082
H      1.25358284    -1.45277369    -0.03166751
H      0.60633659    -2.30981386     0.93072922
O      2.33509136     0.02014751     2.72523296
H      2.39011522     0.01554074     1.76816680
H      3.30248534     0.09432682     3.01909069
O      0.68998933     2.21494908     2.64395700
H     -0.08959059     1.93317074     2.62915019
H      0.82132589     2.38833392     1.84533157
O     -1.83958151     1.44355069     2.65303140
H     -1.96089678     1.32302042     1.89022832
H     -1.02514512     1.42443030     2.89713380
O     -1.99458747    -1.34002007     2.74896188
H     -1.02461912    -1.64791342     2.78208746
H     -2.04907023    -1.29888916     1.74065112
O      0.71658220    -2.29381331     2.79723429
H      0.80331355    -2.10582004     1.70866928
H      1.71953724    -2.13423225     2.87575836
30
water clusters ood_size frame=168
O      2.37670453    -0.10345173    -0.03793642
H      1.82299380     0.79601806    -0.06385574
H      2.51555204    -0.31616846     1.02072692
O      0.63546066     2.10860672    -0.03848974
H      0.67955532     2.28073752     0.79397695
H      1.69548353     2.39666275    -0.10117991
O     -1.93187697     1.44724017     0.12921711
H     -1.81821605     0.38170903     0.09267467
H     -1.84783666     1.66975884     0.95843242
O     -1.86156661    -1.49993061     0.05211539
H     -1.90591125    -1.38608895     0.82952235
H     -0.94764184    -1.51505678    -0.23492455
O      0.66754391    -2.07214368    -0.14687686
H      1.44619561    -1.38389028    -0.01624615
H      0.46111350    -2.13378068     1.00204939
O      2.30285763    -0.14461002     2.65032968
H      2.32422351    -0.09155676     1.67075825
H      3.22811294    -0.01768837     2.97511605
O      0.56968781     2.24926078     2.79908083
H     -0.24332646     1.79513439     2.72725171
H      1.06484963     2.24643379     1.80406686
O     -1.92568345     1.33273358     2.59927921
H     -1.77727205     1.48661262     1.82597925
H     -1.16422665     1.60165427     2.93097179
O     -1.85528634    -1.28996289     2.74555169
H     -0.99540128    -1.55225125     2.63855279
H     -2.02798431    -1.22568640     1.77869537
O      0.58640814    -2.22203090     2.57818729
H      0.63150399    -2.37897948     1.81519171
H      1.65313513    -2.08816264     2.95242385
30
water clusters ood_size frame=169
O      2.39268750    -0.04946923    -0.03659757
H      1.73889253     0.76674783    -0.03628461
H      2.45734289    -0.18400035     0.96544053
O      0.76912946     2.14897028     0.01967244
H      0.71296840     2.26596876     1.00249905
H      1.64142619     2.25728108    -0.17136700
O     -1.92449101     1.45141809    -0.04096927
H     -1.91086569     0.50835232    -0.00034711
H     -1.96297088     1.64710489     0.92020490
O     -1.91616544    -1.31621168    -0.10400376
H     -1.90519004    -1.34483422     0.92172523
H     -0.92984555    -1.35475112    -0.25579838
O      0.75752961    -2.29411649    -0.07094391
H      1.28547278    -1.43570153     0.05439396
H      0.63292709    -2.40754150     0.95650025
O      2.48943280     0.07618342     2.72900900
H      2.41276507    -0.05402821     1.66060917
H      3.26510445    -0.01847407     2.97614717
O      0.74618528     2.22282210     2.76606474
H     -0.23481310     1.93175392     2.72798532
H      0.94188934     2.27797490     1.84884542
O     -1.89408636     1.42603555     2.64906358
H     -1.84269661     1.36369250     1.73719979
H     -0.90585842     1.37414284     2.89291411
O     -1.83031894    -1.42183876     2.61973460
H     -1.02682976    -1.68345959     2.76106088
H     -2.13588359    -1.24985792     1.83560581
O      0.80003368    -2.24893162     2.67437635
H      0.75153188    -2.10142160     1.81822541
H      1.64416170    -2.25378019     2.98573539
30
water clusters ood_size frame=170
O      2.31076727     0.09627668    -0.04224779
H      1.90061367     0.72728532     0.02905309
H      2.32858026    -0.27931244     0.83549369
O      0.74485512     2.18533920    -0.10803825
H      0.59990225     2.10283530     0.89990874
H      1.63894147     2.31978254    -0.29750645
O     -1.82873063     1.34155218    -0.02277846
H     -2.00106329     0.43425175    -0.00202712
H     -1.85580096     1.64159403     1.01849540
O     -1.93623608    -1.36908848     0.00381928
H     -1.81149763    -1.28873271     1.10528489
H     -0.86960037    -1.36220117    -0.25416353
O      0.63465617    -2.25512840    -0.05655813
H      1.34342109    -1.47690187     0.03123778
H      0.58389390    -2.43508544     0.97869383
O      2.24871787     0.05109119     2.87444693
H      2.23349543     0.00218273     1.72788319
H      3.28705754    -0.00849362     2.89821756
O      0.65215146     2.28812643     2.68315537
H     -0.18483001     1.98522400     2.72557333
H      0.96759447     2.34523813     1.66014287
O     -1.82948928     1.32765040     2.71590885
H     -1.95261407     1.31790695     1.74354728
H     -0.98529218     1.50574446     2.92860440
O     -1.99136718    -1.42817140     2.84198977
H     -1.10763224    -1.70613228     2.64722010
H     -2.16378598    -1.29497585     1.68358035
O      0.85446100    -2.24130018     2.73648000
H      0.63923264    -2.28234838     1.84227961
H      1.71625708    -2.22672091     3.07061416
30
water clusters ood_size frame=171
O      2.24126197    -0.09131225    -0.07177982
H      1.85208700     0.86113371    -0.03314786
H      2.50433119    -0.14927586     0.84576929
O      0.71356423     2.19038782     0.04286900
H      0.66397063     2.18556037     1.12684576
H      1.77220311     2.29320268    -0.20799637
O     -1.76172627     1.32109180    -0.04333088
H     -1.89106317     0.43166165     0.02522845
H     -1.97584767     1.42959459     0.90586556
O     -1.84941110    -1.31276285     0.02275241
H     -1.96102671    -1.24287181     1.11631276
H     -0.86887287    -1.27473539    -0.12512245
O      0.68076234    -2.01430943     0.01381851
H      1.40383184    -1.63379605     0.18518382
H      0.61638953    -2.57536406     0.94367466
O      2.49871909    -0.04322458     2.74261525
H      2.19999325    -0.04814184     1.73788950
H      3.44339407    -0.04972425     2.89905740
O      0.80918180     2.22948500     2.74559662
H     -0.14826606     1.83004777     2.86879111
H      1.09562416     2.32135904     1.78852316
O     -1.83876186     1.16862380     2.58357599
H     -1.97852694     1.59184233     1.80742037
H     -0.90730071     1.35128347     2.88876240
O     -2.03752821    -1.54657489     2.76002642
H     -0.91172969    -1.47576118     2.99423931
H     -1.95338676    -1.21302574     1.82394473
O      0.85134062    -2.30862027     2.76938025
H      0.82328828    -2.24256172     1.78781376
H      1.52642010    -2.14188953     3.09808858
30
water clusters ood_size frame=172
O      2.32936216     0.02612650     0.01625438
H      1.76415203     0.75173894     0.09175131
H      2.49986948    -0.22953582     0.85742903
O      0.69614636     2.23625885    -0.00330168
H      0.66884697     2.18707775     0.99660194
H      1.54542904     2.15382427    -0.22616362
O     -1.94422554     1.40823877     0.03082249
H     -1.87308235     0.37372940     0.02613390
H     -1.88085123     1.62162775     0.94819486
O     -1.95368640    -1.40977419     0.03366681
H     -1.77924221    -1.31167106     0.90074277
H     -1.01290863    -1.42356309    -0.19616545
O      0.77434313    -2.21498571     0.01596368
H      1.22047722    -1.45656092    -0.03925496
H      0.65794496    -2.36686533     0.81792260
O      2.34368611    -0.03965407     2.73457126
H      2.33992785    -0.01438823     1.83565165
H      3.26134169    -0.10701902     2.90281277
O      0.76721226     2.18068091     2.80720825
H     -0.13266429     1.98626544     2.70099643
H      0.97821933     2.34231077     1.77941218
O     -1.76976689     1.38610434     2.67440621
H     -1.92858199     1.33103392     1.77590007
H     -0.98810514     1.43753381     2.91151109
O     -1.89904930    -1.35462133     2.66320068
H     -0.96169353    -1.62247132     2.66299220
H     -2.03820936    -1.29615574     1.80288186
O      0.60459724    -2.24860013     2.65607908
H      0.77312008    -2.18927087     1.79064172
H      1.61626298    -2.13910752     2.88572862
30
water clusters ood_size frame=173
O      2.38614610     0.08120653    -0.00464378
H      1.80078474     0.69617572    -0.04831502
H      2.40985828    -0.21396165     0.90382194
O      0.66799841     2.18721892    -0.02606510
H      0.65656316     2.16042943     1.00881732
H      1.65248157     2.22476842    -0.22479492
O     -1.88864023     1.46201581    -0.08782376
H     -1.91407733     0.39724877     0.03704402
H     -1.84782448     1.51000350     0.96864077
O     -1.80293257    -1.24700114     0.05216425
H     -1.77929547    -1.36861168     0.93976024
H     -0.95313958    -1.26394238    -0.30657137
O      0.80844754    -2.29007744    -0.02577926
H      1.23433160    -1.49198763    -0.08790209
H      0.60564749    -2.41571361     0.78600111
O      2.24908445     0.00782864     2.75267504
H      2.30358418    -0.01910702     1.84685153
H      3.20856927    -0.10297095     2.86966189
O      0.54682690     2.17676384     2.72240093
H     -0.23727414     2.00605356     2.64999604
H      0.89483221     2.27603850     1.84975055
O     -1.84391493     1.49061284     2.74698101
H     -1.96405512     1.43377789     1.77148388
H     -1.08645443     1.25170891     2.89995578
O     -1.83781514    -1.44959101     2.57545618
H     -0.95962039    -1.67986674     2.62251415
H     -2.12183392    -1.33991795     1.77858569
O      0.83052208    -2.32834839     2.66492059
H      0.66821068    -2.30897848     1.79986371
H      1.56062307    -2.27456204     2.95544665
30
water clusters ood_size frame=174
O      2.54578110    -0.02590066    -0.03582737
H      1.77873652     0.90547383    -0.02250376
H      2.64042225    -0.12937629     0.96811077
O      0.75713662     2.26788210    -0.08635884
H      0.61458323     2.30962787     1.00595758
H      1.55645613     2.16936884    -0.31452145
O     -1.81750416     1.39170995    -0.03513362
H     -1.85328159     0.33897034     0.05656393
H     -1.88120720     1.50713288     0.93316684
O     -1.93821124    -1.40619069     0.00874883
H     -1.89437350    -1.24398636     0.94223754
H     -0.97020152    -1.13960697    -0.17946043
O      0.75832770    -2.12742978     0.03204705
H      1.38985786    -1.29636599    -0.07019328
H      0.42792065    -2.60668685     0.96585474
O      2.29428814     0.00855033     2.95340795
H      2.43350588    -0.19619641     1.81207078
H      3.23632576     0.04501109     2.94207728
O      0.61533048     2.41549384     2.75473569
H     -0.34043614     1.87718814     2.67427517
H      1.06148088     2.44769290     1.71638467
O     -1.99801785     1.35030577     2.61062519
H     -1.80810253     1.45677288     1.84662199
H     -1.05278471     1.42725077     3.03779518
O     -1.81578299    -1.34163410     2.79101592
H     -0.99769265    -1.80267513     2.78667285
H     -2.01375266    -1.26954031     1.79915471
O      0.69599137    -2.31873438     2.53077310
H      0.72106450    -2.28176744     1.74676329
H      1.66915716    -2.40508939     2.95919703
30
water clusters ood_size frame=175
O      2.33965240     0.06326382     0.02114940
H      1.82586572     0.83715566     0.02899369
H      2.53708759    -0.24701456     0.88008901
O      0.67858383     2.26369575     0.05432680
H      0.76358869     2.22086441     0.95317512
H      1.72248730     2.16562641    -0.18407864
O     -1.92301616     1.41099359     0.03161634
H     -1.86588861     0.47844850     0.02323587
H     -1.94540902     1.60517516     0.98405089
O     -1.85677287    -1.47031077     0.02541682
H     -1.99504115    -1.33398012     0.89557826
H     -0.92728180    -1.37697641    -0.20316316
O      0.66192538    -2.31205442     0.01070818
H      1.24216473    -1.51638901    -0.09570157
H      0.65904752    -2.40887117     0.79166807
O      2.40193482    -0.00854142     2.71531328
H      2.38714701     0.03368935     1.76459896
H      3.29459895    -0.06939277     3.02036769
O      0.76753422     2.21571606     2.75046120
H     -0.21865159     1.96199774     2.79469385
H      1.03037947     2.41346996     1.79897600
O     -1.88814452     1.44356470     2.66117836
H     -1.81074307     1.43160092     1.73656577
H     -0.98953404     1.45565869     2.98067334
O     -1.86683652    -1.40577227     2.68000786
H     -0.99271720    -1.70286221     2.84498180
H     -2.15579417    -1.25836565     1.77443593
O      0.65871354    -2.20682623     2.74750609
H      0.76589389    -2.27597454     1.75049141
H      1.56086184    -2.20968259     2.99019683
30
water clusters ood_size frame=176
O      2.29233827    -0.01140906     0.04945311
H      1.76267511     1.00429460    -0.10540045
H      2.57131572    -0.26363644     0.93337021
O      0.68282512     2.23059451    -0.03757238
H      0.70115409     2.35220384     0.85916154
H      1.75159592     2.27096762    -0.20007502
O     -1.90352947     1.34678589    -0.06384371
H     -1.93937654     0.42649774     0.04671674
H     -1.85227252     1.66356007     0.84469090
O     -1.88697066    -1.32879716    -0.05898267
H     -1.85606552    -1.43200459     1.02271251
H     -0.92182429    -1.39929460    -0.09355356
O      0.80061595    -2.32269810    -0.08781348
H      1.24690284    -1.45198632     0.05793882
H      0.54270900    -2.53853122     1.01290322
O      2.38636584    -0.03227947     2.81824880
H      2.39822263    -0.12600769     1.71360382
H      3.22849341    -0.11690822     2.96566227
O      0.77018463     2.14024338     2.78147523
H     -0.30894895     1.98917542     2.72703409
H      0.98152051     2.23262794     1.77477701
O     -1.77869082     1.32234700     2.78053814
H     -1.76096212     1.40033824     1.76081557
H     -0.85758415     1.37984059     2.94547591
O     -1.93603375    -1.44312987     2.79998548
H     -0.99796312    -1.80331890     2.71832748
H     -2.06238732    -1.14314517     1.79305912
O      0.78587543    -2.10741116     2.80556442
H      0.73462341    -2.24697222     1.63815838
H      1.57663868    -2.17421056     2.89658897
30
water clusters ood_size frame=177
O      2.45789292    -0.03971947    -0.08711538
H      1.79102205     0.72195839     0.09427978
H      2.49394999    -0.23353884     0.99511388
O      0.69965272     2.27566449    -0.02453769
H      0.76752972     2.16428514     0.88828674
H      1.58817184     2.14803684    -0.48614060
O     -1.75146501     1.15617500     0.13513059
H     -1.98171196     0.51447936    -0.26227397
H     -1.86441111     1.74188865     0.85394804
O     -1.92979059    -1.45259135     0.05608970
H     -1.80024976    -1.19174437     0.96175840
H     -1.00183284    -1.43701381    -0.16525265
O      0.72526229    -2.32920193     0.16253374
H      1.30117621    -1.48611063    -0.28641353
H      0.63076932    -2.41522814     0.91181172
O      2.39723277    -0.03361807     2.76468879
H      2.28660533     0.20432672     1.78436234
H      3.15324601     0.06451360     2.97197091
O      0.55745888     2.24213736     2.80988091
H     -0.18776029     1.91987740     2.77537151
H      0.94015952     2.34445803     1.85712233
O     -1.93445243     1.38048403     2.84928905
H     -1.90617538     1.40593666     1.71333649
H     -0.92047532     1.34214382     3.01446441
O     -1.91756504    -1.22179120     2.55623255
H     -0.84403545    -1.67324835     2.81069316
H     -2.29602699    -1.19191547     1.62298132
O      0.64125928    -2.33879156     2.69788496
H      0.72114595    -2.28760807     1.81534116
H      1.70847865    -2.21943309     2.75655974
30
water clusters ood_size frame=178
O      2.37641918     0.00992366    -0.03058581
H      1.77515133     0.79666645     0.02116197
H      2.46976014    -0.16611548     0.88974575
O      0.77145520     2.23252995    -0.00507736
H      0.71056128     2.17513866     0.92961631
H      1.69741915     2.26405506    -0.24438417
O     -1.93020354     1.41336969    -0.02725986
H     -1.91630227     0.43689812     0.05272920
H     -1.88277490     1.55275085     0.88818615
O     -1.93887583    -1.37265025     0.03855663
H     -1.89923553    -1.40084332     0.95071677
H     -0.99504688    -1.40658043    -0.23183251
O      0.74025938    -2.25142003    -0.10881347
H      1.35658682    -1.47394016     0.00091622
H      0.51115286    -2.43608216     0.93264378
O      2.38790476     0.01086580     2.67740479
H      2.43019320    -0.03671449     1.81174344
H      3.18680294     0.03155798     3.01577176
O      0.63658395     2.22380892     2.66934738
H     -0.12279121     1.83928649     2.68094432
H      1.02357247     2.34946206     1.77362845
O     -1.92911595     1.50113721     2.71613340
H     -1.91805928     1.41413160     1.81853707
H     -0.96609205     1.41094575     2.98084267
O     -1.80841567    -1.41972793     2.70305350
H     -1.02248549    -1.66942090     2.74142703
H     -2.13942326    -1.33627836     1.72193518
O      0.72475591    -2.22575360     2.77490823
H      0.71582897    -2.28912731     1.77909801
H      1.57755182    -2.15664310     2.96439312
30
water clusters ood_size frame=179
O      2.35145434     0.01229961     0.03156914
H      1.79349349     0.79359034     0.01195444
H      2.45438865     0.00428401     0.87516876
O      0.59535574     2.16901425    -0.01614066
H      0.67789516     2.09692901     1.00758815
H      1.76748084     2.23035760    -0.22696646
O     -2.06969650     1.30844250    -0.01723427
H     -1.86642225     0.37759666    -0.07799692
H     -1.93406946     1.70679296     0.99727191
O     -1.94306539    -1.34809492    -0.06123267
H     -1.88675098    -1.40840112     0.92806026
H     -1.04552309    -1.30649818    -0.27185846
O      0.67632939    -2.18047453     0.03253433
H      1.38677013    -1.47438961     0.07964106
H      0.51023197    -2.32562448     0.97706918
O      2.36398726    -0.00803842     2.69108938
H      2.32521359    -0.03064702     1.78826553
H      3.33929102     0.00629895     3.01078614
O      0.75543533     2.36133256     2.73282656
H     -0.19853664     1.91017736     2.70073396
H      0.83859689     2.29866307     1.81622845
O     -1.95295779     1.29384463     2.70211700
H     -1.88742266     1.33325516     1.66803506
H     -1.13477531     1.30276467     2.91690626
O     -1.88651804    -1.35336747     2.79973958
H     -1.06423810    -1.79790252     2.80056765
H     -2.09056194    -1.38512308     1.66640446
O      0.57746261    -2.20797369     2.72724667
H      0.77709522    -2.22988689     1.85165039
H      1.62065197    -2.30431279     3.06578372
30
water clusters ood_size frame=180
O      2.25503989    -0.06033886     0.20531998
H      1.72120949     0.74157164    -0.20836166
H      2.42941907    -0.40036514     0.91994933
O      0.92871675     2.04861911    -0.02713683
H      0.83021990     2.26491896     1.05209638
H      1.61700488     2.44941619    -0.09160703
O     -1.88675691     1.35410003    -0.12253058
H     -2.06246210     0.32708449     0.20273311
H     -1.80695397     1.56989415     0.84796977
O     -1.88968602    -1.35190901    -0.07048794
H     -1.84273127    -1.42169550     0.71811678
H     -0.99871229    -1.20892655    -0.42246720
O      0.77875785    -2.10932845     0.07335233
H      1.19588764    -1.34089297     0.02876593
H      0.54750368    -2.53933325     0.97183141
O      2.25280891    -0.15348286     2.93832528
H      2.48563942    -0.21555464     1.72150154
H      3.42510697    -0.09471150     3.02807304
O      0.74312571     2.03085052     2.57973043
H     -0.06208890     1.87330886     2.60263556
H      0.90249312     2.29437919     1.71612462
O     -1.98770173     1.46911665     2.72358375
H     -1.89100891     1.49105202     1.72635273
H     -1.09411381     1.27678533     3.15191066
O     -1.89148425    -1.38178598     2.83542573
H     -0.89753626    -1.84441563     2.80761567
H     -2.02987915    -1.19584386     1.73672052
O      0.69409653    -2.31294216     2.65794218
H      0.80311276    -2.16550440     1.85182062
H      1.60585032    -2.28156557     2.78085355
30
water clusters ood_size frame=181
O      2.38006681    -0.02808320    -0.00967915
H      1.82200156     0.73886160    -0.07203338
H      2.52858517    -0.17831781     0.89205930
O      0.68760107     2.20720447     0.00650598
H      0.68719968     2.23534404     1.00346666
H      1.58641742     2.18504475    -0.20687128
O     -1.91095817     1.45920267    -0.14792236
H     -1.81952513     0.43388322     0.07858766
H     -2.03812989     1.58358644     0.90050289
O     -1.93044824    -1.32388912     0.02702950
H     -1.95681805    -1.44143023     0.99903184
H     -0.94569849    -1.30769785    -0.22887958
O      0.70056882    -2.37031059     0.03642832
H      1.38002586    -1.48987750    -0.03739158
H      0.62959753    -2.39952086     0.95169160
O      2.36978048     0.04784322     2.69721560
H      2.37163294    -0.02531332     1.80053226
H      3.19433073    -0.02031309     3.07918404
O      0.75336188     2.34283075     2.77813389
H     -0.15896448     1.98154897     2.63604755
H      0.92718279     2.27485983     1.81071408
O     -1.95076003     1.37819845     2.70882586
H     -1.95892398     1.40657653     1.81317774
H     -0.88581365     1.40257369     2.98462214
O     -1.87512847    -1.44814137     2.77780454
H     -1.02448031    -1.73018774     2.74335259
H     -2.11344248    -1.30760122     1.80894059
O      0.75905934    -2.15961764     2.72211866
H      0.70607046    -2.21359268     1.83425441
H      1.70661217    -2.21772160     2.92929672
30
water clusters ood_size frame=182
O      2.42571133     0.02254101    -0.07674747
H      1.80825081     0.66199112     0.05707836
H      2.45508708    -0.23019075     0.97015091
O      0.73455083     2.24562784    -0.03044423
H      0.84041336     2.23453119     0.90362525
H      1.57976738     2.32789783    -0.25686873
O     -2.00606638     1.32004853    -0.08954499
H     -1.91662867     0.42931158    -0.06182856
H     -1.73796962     1.58405893     1.08485916
O     -1.78753270    -1.44958968     0.02383003
H     -1.77705151    -1.15220991     0.94829539
H     -0.96556744    -1.46228139    -0.34417826
O      0.62887954    -2.19006268     0.00283109
H      1.45713813    -1.43868803    -0.09034473
H      0.68795221    -2.41963726     0.94537268
O      2.34094165     0.05024428     2.63708704
H      2.39970857    -0.05745164     1.75554332
H      3.24773493    -0.01110182     3.03739777
O      0.65881571     2.33249124     2.82279960
H     -0.32796866     1.97318657     2.71678493
H      0.99213648     2.36896864     1.67196282
O     -2.00246759     1.40658665     2.85439135
H     -1.94324496     1.45669596     1.69268565
H     -0.94421338     1.37068121     2.99173559
O     -1.90568225    -1.41440568     2.50970823
H     -0.83341702    -1.63016795     2.63657530
H     -2.15581272    -1.19867972     1.79230289
O      0.65737075    -2.26002671     2.71375377
H      0.71287517    -2.19158875     1.78812412
H      1.69826062    -2.17525616     2.95405434
30
water clusters ood_size frame=183
O      2.47679462    -0.09279574    -0.03530536
H      1.70282532     0.58111912     0.10676474
H      2.62709193    -0.25188308     1.12644904
O      0.82591050     2.18359645    -0.14184265
H      0.77273783     2.25051880     0.84563469
H      1.65556129     2.23080131    -0.21681990
O     -1.92414818     1.39689700     0.08328667
H     -1.92312504     0.45644966     0.05789947
H     -1.84478854     1.65081550     0.81676855
O     -2.06415866    -1.29734381     0.04169959
H     -1.67020103    -1.28018720     0.91054230
H     -0.92148947    -1.15084848    -0.20259227
O      0.78128401    -2.26005901     0.01779631
H      1.32269851    -1.44851721    -0.09471659
H      0.56871684    -2.57633578     0.82105003
O      2.31027219     0.04402614     2.85527288
H      2.50277696     0.13694834     1.93011397
H      3.27319154     0.06533352     2.92787170
O      0.57537276     2.19837072     2.68688916
H     -0.45731062     1.94478881     2.40820650
H      0.89188977     2.36568054     1.77134577
O     -1.97529209     1.44631662     2.66680466
H     -1.93654791     1.36823744     1.85376000
H     -0.86653500     1.22804974     3.00368120
O     -1.83517497    -1.47335747     2.82993074
H     -1.15226532    -1.76784918     2.51201926
H     -2.14724893    -1.27587837     1.71865583
O      0.71944273    -2.20637515     2.74513374
H      0.61350711    -2.24048612     1.83428812
H      1.75978363    -2.10647473     2.88618485
30
water clusters ood_size frame=184
O      2.38635702     0.08796277     0.02786386
H      1.89187498     0.77349789    -0.01256689
H      2.45852836    -0.16788318     0.90029087
O      0.73635380     2.27100765     0.05063902
H      0.72794216     2.38140233     0.93981792
H      1.51368568     2.28451586    -0.26456067
O     -1.90380023     1.34263859     0.00567498
H     -1.91406376     0.33967845    -0.04343056
H     -1.89293318     1.64600705     0.86435648
O     -1.90044271    -1.40655699    -0.03653182
H     -1.97793020    -1.38950263     0.95082711
H     -1.03627958    -1.35573448    -0.13661622
O      0.71483120    -2.25006177     0.07901952
H      1.32356889    -1.39872930     0.03730243
H      0.49178711    -2.40596981     0.88982930
O      2.36095081    -0.00109833     2.61655693
H      2.37906260     0.03323581     1.77729286
H      3.23547024     0.00530773     2.92892850
O      0.67993345     2.16927176     2.74695316
H     -0.13703985     1.95106921     2.69564412
H      1.05506207     2.20282435     1.77506768
O     -1.92243784     1.35031554     2.68475332
H     -1.95087009     1.39968023     1.71310750
H     -0.98188761     1.38019552     2.99361630
O     -1.88926374    -1.34897792     2.72396462
H     -0.98684694    -1.68953197     2.67831284
H     -2.14971905    -1.31785781     1.79276745
O      0.81698205    -2.26655348     2.71450558
H      0.75239481    -2.30573657     1.79586656
H      1.68324408    -2.25230126     2.94950487
30
water clusters ood_size frame=185
O      2.32702250    -0.13436034     0.01519647
H      1.66399336     0.81932077     0.12637049
H      2.35427878    -0.10258801     0.86033739
O      0.80726930     2.30070687    -0.06840845
H      0.75884146     2.16233236     0.85527676
H      1.78157330     2.21177173    -0.32164170
O     -1.83178404     1.42375264    -0.02447859
H     -1.90955800     0.43655624     0.05980166
H     -1.91949171     1.59188904     0.92035618
O     -1.95983344    -1.33249810    -0.10657386
H     -1.78521760    -1.36810805     0.90944109
H     -0.99925557    -1.27290072    -0.18895767
O      0.82800834    -2.25229724     0.00188076
H      1.37150291    -1.43469998    -0.06889289
H      0.59112958    -2.47145207     0.91226342
O      2.27923213    -0.10720031     2.77905013
H      2.38753981    -0.05326091     1.67332340
H      3.18827797    -0.09278145     2.83242137
O      0.74838524     2.10376390     2.87071481
H     -0.07778960     1.89818964     2.68483976
H      0.91904966     2.20666947     1.80463744
O     -1.86192815     1.48810551     2.66462955
H     -1.96661668     1.36330097     1.80878084
H     -1.00238997     1.42083413     2.89573608
O     -2.00726700    -1.21862351     2.82525752
H     -1.03108781    -1.59247193     2.59767283
H     -2.18380886    -1.35896824     1.76110164
O      0.72909042    -2.24846083     2.70355671
H      0.68020368    -2.29962763     1.65386102
H      1.64177964    -2.22578580     2.98311088
30
water clusters ood_size frame=186
O      2.30382838     0.24758161    -0.04318046
H      1.75621774     0.82115667     0.04409282
H      2.51117005    -0.11023431     1.02213857
O      0.89475354     2.16378029     0.02282897
H      0.73106272     2.11219932     0.84049665
H      1.70437729     2.22786008    -0.15275711
O     -2.01079315     1.43081716    -0.02955767
H     -1.99019752     0.44985975    -0.20386346
H     -2.06308461     1.63979903     0.96426892
O     -1.72757708    -1.27246213    -0.04775745
H     -1.72972402    -1.40225667     0.89308783
H     -1.05838778    -1.55934097    -0.35859762
O      0.70562122    -2.16575892    -0.06861717
H      1.39064505    -1.56588063     0.13255006
H      0.72230813    -2.60910821     0.92392393
O      2.49713046     0.15410870     2.74553896
H      2.29019177     0.02802627     1.77223436
H      3.17424092    -0.16930480     3.06686916
O      0.82200772     2.09541814     2.64574077
H     -0.00079966     1.99779567     2.62672664
H      1.07713068     2.49244337     1.77419284
O     -1.94433435     1.46717295     2.65984720
H     -1.77129536     1.32534176     1.90966118
H     -0.84161203     1.39202934     3.11856925
O     -1.68611872    -1.29846303     2.74024004
H     -1.01827622    -1.68348039     2.74253792
H     -2.00021788    -1.29437763     1.84308335
O      0.68526455    -2.00914354     2.63581894
H      0.77824874    -2.28556925     1.79550391
H      1.60531668    -2.47740903     2.86300832
30
water clusters ood_size frame=187
O      2.38179652     0.02541226     0.07040326
H      1.70648953     0.81256924     0.02637973
H      2.42074614    -0.16604042     0.86747075
O      0.67078656     2.18904183     0.03547235
H      0.70844978     2.20467400     1.01369240
H      1.61785359     2.20693452    -0.31395401
O     -1.83135614     1.32457417    -0.01546541
H     -1.92682058     0.41646225    -0.08831234
H     -1.86042172     1.59188990     0.85018931
O     -1.86225052    -1.41351424    -0.02369368
H     -1.84550684    -1.32112526     1.01953632
H     -0.98836343    -1.30790609    -0.12528502
O      0.63911593    -2.18019024    -0.00783810
H      1.26933090    -1.44028333    -0.02793184
H      0.69037697    -2.33822885     0.99442157
O      2.40535974     0.06106631     2.75484666
H      2.20341508     0.07563860     1.77517390
H      3.22403290    -0.02719713     2.90063871
O      0.69437692     2.27262729     2.65217322
H     -0.11827265     1.95229194     2.61340241
H      1.01012276     2.40476139     1.82560064
O     -1.91969668     1.38500112     2.60035019
H     -1.86607329     1.38067061     1.75515978
H     -1.00860603     1.39186557     2.94288537
O     -1.92497790    -1.45603172     2.71034085
H     -1.00617147    -1.66004432     2.73649498
H     -2.20333789    -1.34127005     1.75254526
O      0.81710454    -2.24937657     2.72348623
H      0.76155072    -2.29520683     1.77922802
H      1.67306972    -2.20343461     3.02609964
30
water clusters ood_size frame=188
O      2.34036749     0.03841486     0.13049737
H      1.81244696     0.74926827     0.10306161
H      2.42665363    -0.15556698     0.89468312
O      0.85597258     2.25581157     0.10486333
H      0.83824751     2.14955704     1.06444487
H      1.67925044     2.35903364    -0.25719853
O     -1.83635439     1.27864572    -0.04255431
H     -1.70924471     0.40846065    -0.01040906
H     -1.86093914     1.61949317     1.00904527
O     -1.91048795    -1.30566294    -0.06519732
H     -1.84588802    -1.41425582     0.95766523
H     -1.01445697    -1.36160432    -0.16723974
O      0.74738495    -2.26297973     0.02078799
H      1.24985649    -1.45727466     0.00455493
H      0.61738495    -2.42416154     0.98906195
O      2.35930378     0.06886637     2.75794779
H      2.38169810     0.03755281     1.82941471
H      3.42320633     0.04069420     2.96189577
O      0.71391238     2.23295159     2.67225563
H     -0.21194839     1.87373425     2.57361132
H      0.99980447     2.20773975     1.74140129
O     -1.89136005     1.37602309     2.64891180
H     -1.99108120     1.29509875     1.67283025
H     -1.01718591     1.33242499     2.95455144
O     -1.86548572    -1.34577321     2.71098826
H     -0.94767791    -1.62918497     2.62295900
H     -2.24218285    -1.25521194     1.68411004
O      0.62795630    -2.30278317     2.68329115
H      0.81083471    -2.18444537     1.70715197
H      1.66895135    -2.22661378     3.03987873
30
water clusters ood_size frame=189
O      2.20416746    -0.09215527     0.04154958
H      1.82746789     0.94955753    -0.14234323
H      2.47695187    -0.34359017     0.70165107
O      0.73938908     2.42011984    -0.06094414
H      0.76298178     2.36228222     0.90801964
H      1.66905626     2.28318606    -0.34965030
O     -1.92364923     1.25516158     0.06852675
H     -1.75759179     0.48083773    -0.27824755
H     -2.07437949     1.67593356     0.73714965
O     -1.90317073    -1.43813124     0.01826586
H     -2.02574719    -1.43032755     1.03749887
H     -0.95625751    -1.49213961    -0.36678048
O      0.63355671    -2.28273647    -0.15360143
H      1.06778705    -1.66564402    -0.07219344
H      0.54804848    -2.52610019     0.78869554
O      2.39137791     0.01330622     2.63045227
H      2.22784621    -0.02224439     1.75580325
H      3.48007078     0.11694728     2.87378918
O      0.58976214     2.15960121     2.69622340
H     -0.26443488     1.91315954     2.80330690
H      1.05000000     2.25718519     1.84567816
O     -1.95906079     1.40085206     2.76814826
H     -1.95716410     1.49147330     1.79284745
H     -0.78918261     1.34652589     2.99567890
O     -1.86173665    -1.42249760     2.63723608
H     -0.95327353    -1.80298724     2.64615741
H     -2.31894621    -1.27159171     1.85757857
O      0.57915780    -2.42899488     2.71328636
H      0.79983709    -2.18554006     1.68187729
H      1.72295633    -2.25877521     2.90800085
30
water clusters ood_size frame=190
O      2.34066760    -0.07686504    -0.05425923
H      1.78090758     0.75451020     0.03615533
H      2.55470632    -0.22491373     0.89355998
O      0.61032213     2.19636764    -0.01866186
H      0.77622954     2.19801308     0.86165015
H      1.69217252     2.21560756    -0.26528221
O     -1.87502516     1.38646120     0.00348709
H     -1.91470987     0.37103301    -0.00265653
H     -1.95193659     1.64203833     0.99047082
O     -1.90741117    -1.38394480     0.08379821
H     -1.92782583    -1.24046297     0.92555827
H     -1.08770917    -1.41637793    -0.19736941
O      0.78130030    -2.27208966    -0.00706247
H      1.18274805    -1.43974172     0.07903180
H      0.62465374    -2.51182120     0.94946506
O      2.32573777    -0.01768935     2.73574175
H      2.36922472    -0.03445828     1.71574059
H      3.27150286     0.06036870     2.97594434
O      0.76174385     2.25367204     2.67697436
H     -0.15573833     1.92750226     2.71028916
H      0.82313254     2.27732151     1.77638102
O     -1.82390778     1.30954931     2.63754488
H     -1.85450030     1.32190724     1.72743399
H     -1.04983015     1.34406279     2.97446711
O     -1.97391732    -1.34163208     2.75976796
H     -0.94299210    -1.69206864     2.67441693
H     -2.19088712    -1.33850004     1.80801166
O      0.71996949    -2.20955750     2.74595616
H      0.72147135    -2.20953377     1.83460708
H      1.63770323    -2.28167055     2.93924491
30
water clusters ood_size frame=191
O      2.33314606     0.04334156     0.03887804
H      1.75329521     0.86975594    -0.04420004
H      2.57951805    -0.15624172     1.02509099
O      0.80228236     2.20047805     0.07004891
H      0.70820077     2.30349897     0.91460880
H      1.74504854     2.30531564    -0.20247731
O     -1.98075448     1.43858263     0.02405834
H     -1.79277752     0.37801342    -0.00032038
H     -1.88638273     1.53428153     0.90205089
O     -1.85002394    -1.41004353    -0.03079710
H     -1.82950721    -1.26556718     1.09470478
H     -1.02093142    -1.37915548    -0.26154608
O      0.68379567    -2.36698238     0.13539138
H      1.16151258    -1.50358864    -0.02189066
H      0.58911612    -2.46677728     0.88534598
O      2.39328394     0.08131666     2.78021144
H      2.39474828    -0.00498116     1.76912194
H      3.28952343     0.07536489     2.96870120
O      0.79637586     2.30174232     2.79506455
H     -0.21804875     1.94112095     2.74565166
H      0.98466109     2.41109232     1.78115771
O     -1.89755214     1.35912834     2.53273752
H     -1.86642060     1.35944731     1.67471753
H     -0.94293717     1.42310764     2.96255324
O     -1.90938508    -1.47950943     2.79301205
H     -0.98662417    -1.68593556     2.77979148
H     -2.14600662    -1.31524492     1.73759521
O      0.76643555    -2.19801603     2.70775336
H      0.64254458    -2.19757680     1.81158841
H      1.66881340    -2.14981878     2.89481624
30
water clusters ood_size frame=192
O      2.26161225     0.06553979     0.07243971
H      1.70689545     0.64453968    -0.05960900
H      2.49870791    -0.21757145     0.86063725
O      0.67618837     2.39261559     0.02957342
H      0.53893130     2.36528908     0.86591657
H      1.69630452     2.33597765    -0.15499514
O     -2.04542299     1.51278618    -0.15713179
H     -1.91030548     0.53818877    -0.03613815
H     -1.94998012     1.70377910     0.82605239
O     -2.08636796    -1.50375225    -0.04448311
H     -1.96532848    -1.34307765     1.05387874
H     -1.05920897    -1.28540925    -0.08332754
O      0.73134044    -2.26345906     0.00502421
H      1.22436828    -1.42824047    -0.01635499
H      0.38225766    -2.34611189     0.85553762
O      2.43438264    -0.14840292     2.83256986
H      2.31696424    -0.10114653     1.63786123
H      3.34470370    -0.18242651     3.00854999
O      0.69438075     2.09164197     2.81162443
H     -0.17372571     1.85222689     2.76547939
H      0.85931661     2.27814944     1.77009023
O     -1.74426546     1.51510610     2.60428192
H     -1.93459119     1.48304137     1.73803690
H     -0.96758693     1.33082400     3.00323413
O     -1.92507125    -1.43620158     2.88172301
H     -1.18566487    -1.63623320     2.75664358
H     -2.24181807    -1.19124660     1.70020933
O      0.58692088    -2.11523996     2.73515569
H      0.93276368    -2.09276547     1.79768580
H      1.57402610    -2.12204322     2.99779757
30
water clusters ood_size frame=193
O      2.36525680     0.02570727     0.05109384
H      1.83092874     0.74332328     0.01994935
H      2.43352769    -0.22032898     0.86537858
O      0.78015979     2.29643479    -0.05134190
H      0.66493760     2.20033943     0.92501023
H      1.70214993     2.16381625    -0.25798303
O     -1.96802950     1.36726959     0.01783771
H     -1.85484071     0.39984377     0.05351593
H     -1.91014250     1.59727681     1.01408027
O     -1.90203303    -1.32584758     0.06091598
H     -1.94469140    -1.32610735     0.90493368
H     -0.96758605    -1.36871307    -0.23237322
O      0.63824921    -2.19714541     0.03073193
H      1.39503917    -1.38550005    -0.02245987
H      0.56149112    -2.39018122     0.87174570
O      2.38869859     0.03089314     2.76951120
H      2.40349843     0.05447112     1.76203433
H      3.18487925     0.10281245     2.98937835
O      0.65000937     2.22951624     2.80733593
H     -0.16437756     1.98741023     2.75927548
H      0.92077683     2.33756804     1.75098788
O     -1.93101446     1.45330215     2.78825317
H     -1.89823008     1.39628577     1.71056271
H     -0.98878694     1.37397212     2.99029601
O     -1.87044347    -1.35641056     2.79371911
H     -0.97783013    -1.70650018     2.70804051
H     -2.14832014    -1.32175795     1.80779676
O      0.70495912    -2.30755838     2.69248662
H      0.69876150    -2.28505628     1.82738327
H      1.59652824    -2.29216931     2.97720877
30
water clusters ood_size frame=194
O      2.42589601     0.07541118     0.11851969
H      1.92028864     0.71774285     0.00731444
H      2.56892958    -0.20567947     1.05353099
O      0.79439976     2.24686147    -0.05444484
H      0.66999229     2.41197146     1.00761190
H      1.63455133     2.36093817    -0.22830481
O     -1.94603237     1.47197411     0.11597195
H     -1.97402525     0.41608734     0.03497588
H     -1.98484284     1.61200938     0.95197827
O     -1.90832930    -1.35632508     0.06572989
H     -1.82978790    -1.29266234     0.94115929
H     -1.03455474    -1.44364015    -0.31816022
O      0.78259072    -2.08882803    -0.00106116
H      1.22921460    -1.42755352    -0.06113110
H      0.41013983    -2.41374967     0.94243799
O      2.35043771     0.02774710     2.79680854
H      2.11132915    -0.13881873     1.62972765
H      3.30675068     0.10264458     3.05398681
O      0.65522317     2.16866674     2.73942202
H     -0.25819840     2.03837851     2.78053057
H      0.93597572     2.25602965     1.65730307
O     -1.91042347     1.35920751     2.63679649
H     -1.89322378     1.42059441     1.67292014
H     -0.92336376     1.31838537     2.96314968
O     -1.80569874    -1.30225804     2.71865462
H     -0.86337674    -1.62379082     2.75219978
H     -2.19258974    -1.34894948     1.68563226
O      0.68117311    -2.23491406     2.75202090
H      0.82603732    -2.21064227     1.62281593
H      1.52712586    -2.13151176     3.03053884
30
water clusters ood_size frame=195
O      2.22649747    -0.14913490     0.19930206
H      1.95154316     0.67261614    -0.07695226
H      2.86054155    -0.15693123     0.93750835
O      0.76739991     2.05567926    -0.00002974
H      0.81252908     1.94319014     0.93941939
H      1.69782558     2.23075785    -0.15794112
O     -1.91611079     1.27094159    -0.03513581
H     -1.93337189     0.38770906     0.02466953
H     -1.87241838     1.59803409     0.98810539
O     -1.83587577    -1.40694365     0.04756252
H     -1.95826329    -1.51052645     0.82493166
H     -1.08144164    -1.25927095    -0.26220217
O      0.62201554    -2.19436039     0.27427123
H      1.41396882    -1.42016470     0.03252878
H      0.58152709    -2.48452137     1.10781916
O      2.31763717     0.12409627     2.67904636
H      2.37123153     0.11703523     1.82103633
H      3.29656356    -0.05166085     2.77375429
O      0.79036044     2.44519208     2.76711256
H     -0.27965378     1.87785194     2.60617832
H      0.88072828     2.49597705     1.78467765
O     -1.84183847     1.38198145     2.74122886
H     -1.83523872     1.36934876     1.83319346
H     -1.02408109     1.30283380     3.05878160
O     -1.82772454    -1.41779537     2.68044379
H     -0.91657575    -1.62296027     2.87525133
H     -1.99168777    -1.45199235     1.76939332
O      0.66613341    -2.21837759     2.57172326
H      0.69817511    -2.13000994     1.61362585
H      1.63842542    -2.13069608     2.69395601
30
water clusters ood_size frame=196
O      2.30852394     0.03485304     0.05699924
H      1.77903179     0.82242897    -0.12003964
H      2.60914058    -0.25310382     0.82749226
O      0.74448970     2.13455892     0.02226475
H      0.68165569     2.22102123     0.94898122
H      1.57384737     2.23831244    -0.24978847
O     -1.90833819     1.39693387    -0.01707425
H     -1.90349515     0.49586160    -0.09712146
H     -1.88949306     1.61157186     0.91560290
O     -1.91432578    -1.35196295    -0.02161507
H     -1.86640887    -1.34738669     1.04592051
H     -0.88026900    -1.37077630    -0.29760957
O      0.72429487    -2.27012665     0.09146870
H      1.32004772    -1.40299171    -0.04381536
H      0.60316615    -2.47841022     0.90841966
O      2.38381185    -0.04959566     2.72105033
H      2.23591896     0.09449504     1.74799423
H      3.27721757    -0.06809485     2.92612515
O      0.82389875     2.25326373     2.66098282
H     -0.02070948     1.89515009     2.67327582
H      0.98630123     2.30972266     1.81193445
O     -1.91011975     1.34469407     2.66813703
H     -1.90795865     1.39742142     1.82774288
H     -0.90716045     1.42128767     2.99429968
O     -1.81816111    -1.43705104     2.72110084
H     -1.00310902    -1.63356041     2.76560932
H     -2.15983142    -1.26699369     1.79842050
O      0.72907058    -2.22542692     2.64546382
H      0.70082415    -2.26395031     1.78225954
H      1.57887125    -2.22360808     2.91097914
30
water clusters ood_size frame=197
O      2.38061040    -0.06683845    -0.08256319
H      1.73394981     0.72765177     0.13046496
H      2.61112584    -0.23839458     0.93760065
O      0.71880824     2.25082947     0.12799756
H      0.77205506     2.10919077     0.99153425
H      1.66403738     2.23418042    -0.15751702
O     -1.97031508     1.30711839     0.14283067
H     -1.93639376     0.41020399     0.01309445
H     -1.90692517     1.69739344     0.87726261
O     -1.95894540    -1.37430466    -0.08884850
H     -1.87999412    -1.42081962     0.93739591
H     -0.97406418    -1.44769995    -0.18650400
O      0.61229978    -2.25547855     0.04711363
H      1.38629927    -1.59185952    -0.04431727
H      0.63086576    -2.40316224     0.95034527
O      2.34810111    -0.02383621     2.70970948
H      2.30608804     0.02282180     1.75707507
H      3.23021116     0.04689902     2.93728830
O      0.69506306     2.14091325     2.65153414
H     -0.12776678     1.82333109     2.71259180
H      0.88964947     2.26245093     1.75602661
O     -1.95230599     1.25146814     2.71354347
H     -1.88213104     1.36915395     1.79068990
H     -0.92173451     1.50263922     2.87031261
O     -1.83206343    -1.43309876     2.79284282
H     -0.97104841    -1.70000981     2.69541857
H     -2.05349439    -1.28357029     1.85826815
O      0.62209066    -2.23004005     2.68958827
H      0.79951178    -2.28817594     1.71172370
H      1.57271432    -2.27757189     2.83552159
30
water clusters ood_size frame=198
O      2.20549098     0.10849284    -0.02409866
H      1.74444902     0.82908093     0.02124558
H      2.30235805    -0.16631756     1.07142413
O      0.77981402     2.17713677    -0.14918268
H      0.68745744     2.28364432     0.91724390
H      1.72198790     2.35065550    -0.16123880
O     -1.96856744     1.31785982     0.17662259
H     -1.95590291     0.44362887    -0.14804949
H     -1.84412797     1.71075881     1.03146223
O     -1.94881803    -1.27489355     0.00422203
H     -1.87398377    -1.53654446     0.91883262
H     -0.84038939    -1.46152181    -0.11320837
O      0.69156053    -2.24102516    -0.01035965
H      1.39073935    -1.41122952    -0.02734181
H      0.74546043    -2.41356184     1.09429813
O      2.31967534     0.10464985     2.71240533
H      2.19382966     0.05172637     1.96240573
H      3.17381948    -0.11413199     2.83926274
O      0.75892366     2.21402207     2.54805149
H     -0.26798114     1.94379217     2.75437673
H      0.96459084     2.17527783     1.79561188
O     -1.92141449     1.62332048     2.63006618
H     -1.83532697     1.33181882     1.77353666
H     -1.01208755     1.32053264     2.84828422
O     -1.91252149    -1.36182013     2.63787009
H     -0.89085768    -1.71900365     2.58943990
H     -2.02352485    -1.41518196     1.49155453
O      0.65902148    -2.35928542     2.61976564
H      0.66665861    -2.17082372     1.74633840
H      1.66377864    -2.40720153     2.94250249
30
water clusters ood_size frame=199
O      2.36155226    -0.00148485     0.01816223
H      1.87797679     0.70366319     0.05570638
H      2.47561814    -0.17756839     0.86529242
O      0.68568668     2.20270326     0.04280520
H      0.75078821     2.29877889     0.99086641
H      1.71803751     2.29068100    -0.25057459
O     -1.90508439     1.36324893     0.01497785
H     -1.91253740     0.41630413    -0.02586183
H     -1.88954160     1.61880122     0.96871268
O     -1.95563790    -1.36321165     0.00250094
H     -1.93112537    -1.37575891     0.99158849
H     -1.06144472    -1.42154771    -0.29373532
O      0.68459790    -2.30945516    -0.09076722
H      1.33215013    -1.42936950    -0.11612759
H      0.54941165    -2.42267822     0.87798821
O      2.40540900     0.03257475     2.73438582
H      2.40092259     0.01087304     1.76116954
H      3.38470052     0.02972157     2.88858586
O      0.74645853     2.23351845     2.64037065
H     -0.18804391     1.95813264     2.80162147
H      0.96534499     2.30329676     1.76097243
O     -1.93878859     1.39931596     2.67278096
H     -1.93334216     1.36588277     1.73035122
H     -0.96932450     1.31747362     2.90446737
O     -1.81805226    -1.37407277     2.72227149
H     -0.88729123    -1.67040920     2.69849264
H     -2.09106653    -1.34443445     1.85745672
O      0.68014354    -2.25236664     2.78028416
H      0.75707217    -2.25884646     1.71569336
H      1.68314560    -2.29869237     2.94599018
36
water clusters ood_size frame=200
O      2.80954429    -0.11416258     0.02446814
H      2.38275802     0.86861797    -0.04242857
H      2.84354078    -0.23398743     0.97299639
O      1.38303417     2.39118818     0.07336693
H      1.40997225     2.35259357     0.93815150
H      2.24332659     2.38052776    -0.30776468
O     -1.34449881     2.46990008     0.07946384
H     -1.81895538     1.56000075    -0.02650406
H     -1.11076612     2.53611354     0.91289427
O     -2.76334697    -0.05866055     0.01832298
H     -2.73979458    -0.00824188     0.99287001
H     -1.84757178     0.10480327    -0.23836842
O     -1.45809701    -2.31382779    -0.05833738
H     -0.50760426    -2.49003787     0.04570811
H     -1.63894045    -2.42958543     0.96236845
O      1.35887366    -2.34237883     0.05424399
H      1.40738678    -2.31294179     0.89901038
H      2.31724901    -2.43494685    -0.24726436
O      2.75376698     0.04444170     2.74635432
H      2.83082451    -0.00597548     1.81863482
H      3.75172721    -0.02867841     2.91887052
O      1.30513156     2.44305022     2.72627913
H      0.42111483     2.42364388     2.69515190
H      1.64281298     2.31961934     1.88357176
O     -1.46049954     2.42113157     2.63000458
H     -1.44591588     2.37388903     1.65614190
H     -0.51767285     2.36974601     3.00297961
O     -2.80904424     0.05174618     2.63275499
H     -2.30130945    -0.83107421     2.72834284
H     -2.84482695     0.19274176     1.74006994
O     -1.37625267    -2.34537144     2.73530758
H     -1.29520853    -2.40800195     1.83866177
H     -0.45205659    -2.27816474     2.95739415
O      1.45709290    -2.37708288     2.74027326
H      1.83777152    -1.64445778     2.66417503
H      1.20211097    -2.69746610     1.76095401
36
water clusters ood_size frame=201
O      2.87784825     0.04412194    -0.00689748
H      2.25192463     0.77972229     0.03616589
H      2.93170294    -0.35010552     0.82165349
O      1.30358497     2.41940356    -0.02124663
H      1.24838742     2.43175914     0.94920631
H      2.35478655     2.36398980    -0.31558283
O     -1.37748957     2.41440333     0.03039926
H     -1.83478070     1.43288181    -0.06352735
H     -1.33037387     2.63479124     0.85730801
O     -2.72318307     0.07336696    -0.00441388
H     -2.73035108     0.07595137     0.94283417
H     -1.83042192    -0.08576864    -0.27155477
O     -1.42474054    -2.37084403     0.06118448
H     -0.41651770    -2.39445030     0.04296425
H     -1.51420118    -2.42734484     1.04977664
O      1.41373906    -2.33354465     0.01341692
H      1.33725197    -2.46366392     1.03662345
H      2.23931132    -2.48976148    -0.27941962
O      2.76724764    -0.04855957     2.75027430
H      2.83840400    -0.04075351     1.79499092
H      3.59486984     0.02099619     2.97264783
O      1.40062268     2.42808738     2.75049003
H      0.35700944     2.33122067     2.64799186
H      1.59046825     2.44931790     1.81340487
O     -1.35843707     2.41875857     2.65944770
H     -1.49896864     2.39473171     1.63956813
H     -0.48968844     2.33962041     2.98872389
O     -2.70594678    -0.00847806     2.60502911
H     -2.28843420    -0.79415849     2.75347901
H     -2.88789801     0.19388742     1.74295135
O     -1.34568823    -2.31233741     2.79142294
H     -1.37961950    -2.32263741     1.70615384
H     -0.51816655    -2.45616957     2.93315093
O      1.29782920    -2.41564275     2.58771135
H      1.91305632    -1.49890350     2.77524729
H      1.28322454    -2.55523112     1.78715657
36
water clusters ood_size frame=202
O      2.72794407    -0.04756815     0.07997311
H      2.19232087     0.81093839    -0.01806298
H      2.92700177    -0.19597270     1.04408321
O      1.50722836     2.40058903    -0.11170393
H      1.38596314     2.43451719     1.01005308
H      2.31673348     2.27711731    -0.23859648
O     -1.24104431     2.35074610    -0.09249992
H     -1.93800889     1.79148832     0.10471670
H     -1.20363506     2.68804522     0.91686446
O     -2.74884234    -0.13524260     0.16230622
H     -2.80235171    -0.22344330     0.93676863
H     -1.96121879     0.10522393    -0.34219581
O     -1.27324321    -2.27691287     0.15134229
H     -0.32861118    -2.37757528    -0.06973110
H     -1.65011915    -2.56163862     0.88767370
O      1.60994692    -2.30596776    -0.04855055
H      1.55548918    -2.62909268     1.01500267
H      2.34543356    -2.38391319    -0.19553925
O      2.94785383     0.15568652     2.74720385
H      2.80809324     0.05947510     1.91140825
H      3.78399937    -0.07982282     2.99859370
O      1.44285049     2.43173429     2.61560200
H      0.47614079     2.45547123     2.77484335
H      1.78194775     2.43080475     1.69384411
O     -1.21151939     2.33226083     2.88358342
H     -1.35684440     2.14451049     1.95764745
H     -0.42789268     2.43941131     2.84094608
O     -2.78777822     0.04697346     2.53375661
H     -2.25673641    -0.75605244     2.52730553
H     -2.82162906     0.10680924     1.61146193
O     -1.44267694    -2.31163764     2.76188163
H     -1.33485413    -2.49317652     1.77552480
H     -0.37318527    -2.47510927     2.88902333
O      1.48258641    -2.40600174     2.82245682
H      1.91077820    -1.59762013     2.62089910
H      1.39021986    -2.59720389     1.70877725
36
water clusters ood_size frame=203
O      2.80702591    -0.02494116    -0.07561858
H      2.31582287     0.88706076    -0.08943676
H      2.93476401    -0.14685010     0.93144777
O      1.33341813     2.41788223    -0.04765444
H      1.45360495     2.41358048     0.97511391
H      2.37995419     2.39799724    -0.25357614
O     -1.31938426     2.38316721    -0.02410611
H     -1.89422923     1.50824404     0.04533810
H     -1.23555826     2.60367291     0.83366411
O     -2.72198680     0.05201965     0.02117494
H     -2.71842839    -0.00795548     0.98732845
H     -1.85672752    -0.03795256    -0.20654178
O     -1.42699758    -2.37075078    -0.00089730
H     -0.36232700    -2.43585074     0.09285172
H     -1.57286206    -2.41462975     0.93449455
O      1.37022087    -2.43852851     0.02713682
H      1.36430126    -2.43266079     0.90237366
H      2.31530718    -2.29805539    -0.25637815
O      2.79363352     0.07295703     2.71345856
H      2.72016779    -0.05757523     1.72241866
H      3.69774736    -0.05441108     2.98032565
O      1.41582605     2.45270386     2.69277610
H      0.39150169     2.44166333     2.70964991
H      1.60277222     2.42349305     1.82542306
O     -1.38125290     2.43534127     2.76143551
H     -1.37914824     2.46949079     1.72602231
H     -0.51353757     2.34184485     2.96253160
O     -2.76339905    -0.03062630     2.70391027
H     -2.33228375    -0.87467698     2.70459218
H     -2.92655638     0.21340257     1.82149890
O     -1.33257076    -2.40678971     2.69548761
H     -1.42845281    -2.49047983     1.75666552
H     -0.50833153    -2.41066936     2.94685196
O      1.37679403    -2.31074732     2.68041790
H      1.97297957    -1.50214772     2.76218245
H      1.23828040    -2.58811232     1.71476521
36
water clusters ood_size frame=204
O      2.77525456    -0.14328938     0.00830152
H      2.24508436     0.92854825    -0.04672848
H      2.78381343    -0.29333913     0.93280386
O      1.27616681     2.49668371    -0.09000432
H      1.45892320     2.30316509     0.93792744
H      2.37031844     2.55640261    -0.23226136
O     -1.50439281     2.28948647     0.09308728
H     -1.76122096     1.55568161    -0.03671999
H     -1.18754082     2.51664174     0.91103350
O     -2.71922094    -0.12682337    -0.03750501
H     -2.75219255     0.00425520     0.94155491
H     -1.79433117     0.08244921    -0.29001928
O     -1.55989885    -2.40472338    -0.07070169
H     -0.66957961    -2.48859647     0.05525415
H     -1.67116742    -2.48715624     0.96354186
O      1.24350663    -2.30166850     0.01811834
H      1.38710160    -2.37703647     0.93933547
H      2.35482494    -2.30945964    -0.22353250
O      2.69542666    -0.06110414     2.69233413
H      2.69002622     0.00618672     1.78241372
H      3.69562572     0.06793085     3.01306898
O      1.30134782     2.43507381     2.68988238
H      0.53175842     2.36135558     2.73071303
H      1.61128622     2.34594141     1.70140634
O     -1.44771742     2.45506400     2.61854529
H     -1.26511539     2.32561402     1.70216046
H     -0.42516676     2.44825057     3.04413390
O     -2.84773745     0.15944250     2.67282850
H     -2.27690750    -0.84649115     2.82132193
H     -2.94946108     0.28248517     1.65536353
O     -1.37914180    -2.22808967     2.73808095
H     -1.46088892    -2.45464643     1.83507678
H     -0.41466667    -2.54012246     2.90428295
O      1.37565699    -2.41638756     2.72572827
H      1.73808751    -1.56074990     2.69126457
H      1.19606878    -2.58881837     1.75223255
36
water clusters ood_size frame=205
O      2.68319717    -0.00534195     0.13353579
H      2.38582703     0.89967882    -0.07846527
H      2.77849473    -0.36119050     0.91656841
O      1.27759527     2.45921995     0.07377463
H      1.34537597     2.36423755     0.83755663
H      2.33662128     2.30228248    -0.23576688
O     -1.37523041     2.48477853    -0.01543111
H     -2.02946040     1.50424699    -0.03771282
H     -1.29783910     2.61142796     0.90837126
O     -2.69142943    -0.07459914    -0.00321179
H     -2.79442363    -0.12952774     1.02381908
H     -1.88580404    -0.16215157    -0.30681847
O     -1.35962668    -2.38397517     0.12733585
H     -0.43679270    -2.17495114    -0.17647071
H     -1.66539382    -2.54603250     0.83057270
O      1.41725579    -2.59684107     0.23937948
H      1.26733176    -2.38093868     1.02601898
H      2.42101604    -2.36063144    -0.17663579
O      2.71980210     0.12266084     2.80229612
H      2.70912883     0.14810797     1.66672764
H      3.81982760     0.01703475     2.94043648
O      1.41008392     2.43703151     2.61861913
H      0.50010483     2.51363787     2.62817422
H      1.70149337     2.37028708     1.71370875
O     -1.33385778     2.33208756     2.63545122
H     -1.36645647     2.39416109     1.56297977
H     -0.33839740     2.53084691     2.80671469
O     -2.84372268     0.01902172     2.77287685
H     -2.12103022    -0.75755914     2.71881792
H     -2.93314069     0.26109155     1.98301142
O     -1.42236429    -2.31123572     2.57809922
H     -1.40634529    -2.52461504     1.83889847
H     -0.41058618    -2.18752687     3.00716610
O      1.41925284    -2.54438586     2.80195123
H      1.80415150    -1.47019055     2.74381741
H      1.22811521    -2.52235002     1.75374000
36
water clusters ood_size frame=206
O      2.75030012    -0.05141771    -0.07766462
H      2.24879507     0.89445758    -0.05754608
H      2.82598078    -0.24325435     0.93645570
O      1.46498894     2.38941789     0.04707061
H      1.39976769     2.30200556     0.97749171
H      2.27459381     2.37564771    -0.26701422
O     -1.43586634     2.41222536     0.04897505
H     -1.93536606     1.61064575    -0.04666111
H     -1.23510056     2.61271453     0.95839848
O     -2.75643874    -0.03392184    -0.04055519
H     -2.87279746    -0.01881188     1.02137155
H     -1.87441620     0.01934480    -0.29057866
O     -1.38414998    -2.37644797     0.09252646
H     -0.43617783    -2.52048565     0.01169761
H     -1.63274294    -2.41775201     0.91090636
O      1.41882939    -2.32251472     0.01272042
H      1.46010016    -2.40772788     0.98991950
H      2.31295851    -2.44154973    -0.24947053
O      2.79063968     0.01802974     2.73084258
H      2.80679109     0.06647155     1.78949370
H      3.58310706    -0.00486732     3.03273017
O      1.44069333     2.45168436     2.74331970
H      0.36320032     2.32104683     2.76628646
H      1.57180005     2.28317552     1.80368511
O     -1.29235130     2.38399397     2.75056221
H     -1.36501424     2.37127708     1.75304678
H     -0.37043938     2.42049065     2.91770799
O     -2.70692410     0.07247148     2.76667294
H     -2.37290681    -0.81927799     2.67442375
H     -2.80184529     0.23409837     1.81494652
O     -1.36699894    -2.42705164     2.72358551
H     -1.37958864    -2.46314742     1.77768112
H     -0.46577856    -2.41373503     2.98422536
O      1.38105841    -2.34394739     2.71530369
H      1.80951819    -1.55235999     2.71459273
H      1.30034096    -2.52579480     1.68682915
36
water clusters ood_size frame=207
O      2.67127096    -0.03394458     0.02315349
H      2.27767579     0.85420819    -0.02802904
H      2.85087526    -0.16872510     0.95686749
O      1.28194104     2.46929136     0.01870575
H      1.38853080     2.33813020     1.05831142
H      2.30527496     2.42194774    -0.13339809
O     -1.40947088     2.22147888    -0.01949172
H     -1.85618326     1.58049934     0.07102352
H     -1.28000047     2.63640877     0.89542337
O     -2.74270208     0.00031569    -0.01243837
H     -2.73290172     0.16438976     0.86958460
H     -1.87377755    -0.04798252    -0.11298768
O     -1.26839595    -2.42551314     0.01390323
H     -0.43683983    -2.38984727    -0.13021438
H     -1.69184788    -2.48929258     0.81282371
O      1.23797683    -2.30764556    -0.11487829
H      1.29957820    -2.41652919     0.88113839
H      2.32081395    -2.46026100    -0.31211492
O      2.71138074    -0.02868654     2.76970985
H      2.80749299    -0.01682733     1.84058321
H      3.71493742     0.06313693     3.16364328
O      1.38337579     2.31751686     2.69242024
H      0.45780210     2.44989724     2.77152407
H      1.48396658     2.41563150     1.86647786
O     -1.44000750     2.37605468     2.70603517
H     -1.33632701     2.29236275     1.63251605
H     -0.49520597     2.30100609     2.90505203
O     -2.89567993    -0.02509200     2.61494894
H     -2.28208839    -0.83721967     2.86982206
H     -2.84666343     0.15094441     1.77327266
O     -1.39936886    -2.37868248     2.71542173
H     -1.39131655    -2.35954288     1.86424326
H     -0.36157952    -2.25149454     3.08103368
O      1.44606764    -2.48371020     2.63194400
H      1.88830943    -1.58579049     2.70563510
H      1.25841986    -2.44937900     1.81417861
36
water clusters ood_size frame=208
O      2.85548311    -0.07274360    -0.08293036
H      2.23722719     0.66249084     0.07998572
H      2.93144260    -0.23160084     0.91071891
O      1.25908195     2.24593378     0.02158560
H      1.41346352     2.47092991     0.98233097
H      2.30118753     2.43066956    -0.45656461
O     -1.51762539     2.26717900    -0.14904701
H     -2.04615887     1.53695640     0.01626083
H     -1.36891206     2.71220037     0.70572738
O     -2.65207323     0.06338329    -0.10692044
H     -2.70863834     0.01896388     0.81868561
H     -1.88170881     0.00270946    -0.23919169
O     -1.36471748    -2.43227471     0.02384671
H     -0.38685677    -2.23663765    -0.07772526
H     -1.71334450    -2.27270161     0.84485055
O      1.48513546    -2.34695068     0.02165017
H      1.42380892    -2.28922608     1.04835972
H      2.48537862    -2.33840577    -0.38486602
O      2.97981032     0.11171823     2.68369110
H      2.70393245    -0.01114611     1.68260916
H      3.72948574    -0.03400678     2.99164625
O      1.41766807     2.31186527     2.65029299
H      0.41692033     2.31006994     2.64005254
H      1.68847514     2.43541814     1.75589827
O     -1.32237385     2.29784946     2.62131311
H     -1.43777330     2.44880915     1.74114385
H     -0.44582561     2.40056054     2.98470650
O     -2.73751428    -0.00394311     2.84456891
H     -2.33723052    -0.86636492     2.70809543
H     -2.99384979     0.22824266     1.70255596
O     -1.43289884    -2.32554481     2.66868778
H     -1.60653573    -2.42809878     1.63958809
H     -0.50193114    -2.23494322     2.90108347
O      1.34199734    -2.30882303     2.75963385
H      1.78657259    -1.57481677     2.76803853
H      1.16071733    -2.63148999     1.87473495
36
water clusters ood_size frame=209
O      2.76741773     0.01107768    -0.01767899
H      2.27812894     0.86044388    -0.00233524
H      2.90378785    -0.17533873     0.90036900
O      1.33714827     2.35991694    -0.06113831
H      1.43121850     2.46451996     1.04269873
H      2.24911475     2.36908662    -0.26429169
O     -1.40432049     2.30699681    -0.00485408
H     -1.83694076     1.61868277    -0.05147809
H     -1.25608357     2.52501879     0.94774034
O     -2.78624053     0.07112999     0.01067424
H     -2.72460388     0.07266179     0.93400642
H     -1.80782778     0.00271519    -0.17935139
O     -1.40951158    -2.47777576     0.05874676
H     -0.39702756    -2.33775658    -0.03923503
H     -1.57937728    -2.35840575     0.83418105
O      1.26016745    -2.41035785    -0.05954921
H      1.45251279    -2.44542176     0.90542593
H      2.34256192    -2.39628636    -0.25295172
O      2.77626032    -0.04874674     2.71837110
H      2.73392294    -0.05305227     1.78301711
H      3.65245652    -0.05841213     3.06426317
O      1.36298130     2.42633471     2.78510166
H      0.47192017     2.35487172     2.69836203
H      1.60164608     2.34041425     1.82915244
O     -1.46610713     2.39833186     2.75922661
H     -1.42966932     2.43030229     1.82254459
H     -0.45675080     2.42253579     2.85733159
O     -2.81644870    -0.02037008     2.77501906
H     -2.36954826    -0.83157195     2.71291057
H     -2.92785886     0.21484248     1.81900779
O     -1.36057503    -2.43685394     2.70479897
H     -1.39246950    -2.35069092     1.76068771
H     -0.46527625    -2.38020159     2.79840438
O      1.40784056    -2.43112415     2.74616817
H      1.83638392    -1.60155935     2.69105401
H      1.21152462    -2.54135336     1.74230194
36
water clusters ood_size frame=210
O      2.74361430    -0.12822539    -0.05261499
H      2.27595612     0.82489797     0.02450164
H      2.84336419    -0.29455976     0.99889013
O      1.34310663     2.34228340     0.04411543
H      1.33757759     2.30949801     0.85681989
H      2.26583166     2.41869838    -0.27141406
O     -1.40122284     2.44918710    -0.05440501
H     -1.72507392     1.65990196     0.14388061
H     -1.24228385     2.72434152     1.03299954
O     -2.75386190    -0.06364086    -0.09117223
H     -2.72957807    -0.00314137     0.94091862
H     -1.87507430     0.08732045    -0.28050953
O     -1.38210607    -2.32453044     0.02398065
H     -0.30901750    -2.46478681     0.07565372
H     -1.62781631    -2.29813899     1.01974101
O      1.42223851    -2.44522946    -0.02268406
H      1.28216926    -2.45450497     0.75412443
H      2.16517642    -2.36568182    -0.17963675
O      2.79187390     0.04916552     2.72656322
H      2.87409201    -0.08888461     1.73524569
H      3.71067815     0.01768682     2.88817819
O      1.39510568     2.39386405     2.75219342
H      0.54153066     2.54054060     2.67746692
H      1.64852833     2.33424708     1.81777978
O     -1.20362781     2.38769499     2.63595160
H     -1.54061181     2.47308821     1.64858939
H     -0.42542524     2.31532618     2.92703296
O     -2.77742908    -0.17458975     2.79477857
H     -2.26516690    -0.78393295     2.73838788
H     -2.92900643     0.27658795     1.81230792
O     -1.33540783    -2.34858061     2.64189049
H     -1.48254058    -2.43551055     1.72135505
H     -0.43950347    -2.50676230     2.87396681
O      1.24986135    -2.35225857     2.68808371
H      1.86122919    -1.56945984     2.79834925
H      1.27609137    -2.59013183     1.79897753
36
water clusters ood_size frame=211
O      2.77878314    -0.02109373     0.04204540
H      2.24409893     0.89488468     0.01471644
H      2.86123454    -0.02984627     0.81937557
O      1.57397742     2.29481620     0.05828274
H      1.29161611     2.45077902     0.79971749
H      2.36806507     2.34694083    -0.18430452
O     -1.34237715     2.63305655    -0.06861386
H     -1.85185116     1.50605681    -0.03092235
H     -1.40226845     2.62925085     0.91169166
O     -2.98611771     0.21734865    -0.06645381
H     -2.83703444    -0.14217809     0.79775996
H     -1.91144735    -0.02404412    -0.49296914
O     -1.23229848    -2.33056751     0.06241593
H     -0.32649100    -2.26529164    -0.12073127
H     -1.53534195    -2.32564363     0.92559058
O      1.40020132    -2.37873869     0.17660791
H      1.33569004    -2.44717866     1.03458588
H      2.18089753    -2.33311715    -0.46669993
O      2.80676482    -0.01716406     2.78466969
H      2.70357273    -0.13461519     1.96170493
H      3.52606160     0.16392772     3.13922899
O      1.38008119     2.45343634     2.68019474
H      0.50351253     2.34015997     2.63532716
H      1.54571973     2.47359294     1.81366098
O     -1.36198709     2.40429084     2.89607787
H     -1.29330728     2.32187031     1.90810783
H     -0.41232390     2.17605987     2.96838984
O     -2.68432996    -0.08962033     2.67482380
H     -2.26148077    -0.79826260     2.69197824
H     -2.86011019     0.26000992     1.96504007
O     -1.35243712    -2.61225752     2.69651506
H     -1.27404927    -2.42858676     1.65602239
H     -0.63026459    -2.45495597     2.85693673
O      1.43155924    -2.40281310     2.72605667
H      1.64079880    -1.52878504     2.68717097
H      1.36862733    -2.46141614     1.80024285
36
water clusters ood_size frame=212
O      2.79474890    -0.09062378    -0.03829045
H      2.23979019     0.71467202    -0.01933523
H      2.80002185    -0.18354105     0.93041006
O      1.35973359     2.37655961     0.07291523
H      1.43968539     2.49355175     0.95135928
H      2.28904221     2.37863377    -0.27154789
O     -1.44174759     2.40447442    -0.02768532
H     -1.78502577     1.46287393     0.04469416
H     -1.31726468     2.63515697     1.00496106
O     -2.77629368    -0.03094553    -0.02088477
H     -2.73510377    -0.03439509     0.88585439
H     -1.89322326     0.15128767    -0.24237286
O     -1.48152840    -2.38022299    -0.05879398
H     -0.38155570    -2.41880875    -0.05602131
H     -1.66892678    -2.36819840     1.02122327
O      1.44873351    -2.36785995    -0.02348108
H      1.31773260    -2.38915046     0.88327238
H      2.26051438    -2.37704161    -0.21754534
O      2.73239853     0.00478183     2.66768780
H      2.78844072     0.13243229     1.77734393
H      3.62608481    -0.01697819     2.95375461
O      1.41621797     2.38084527     2.68544884
H      0.42901905     2.40405814     2.71921404
H      1.59987844     2.43252921     1.76349223
O     -1.37563677     2.41975337     2.71829318
H     -1.31461072     2.41764919     1.82771088
H     -0.51178452     2.42804703     2.97146288
O     -2.72134548    -0.05676105     2.67470981
H     -2.31772223    -0.82482793     2.70354298
H     -2.88827700     0.15161671     1.77250033
O     -1.26420312    -2.45251841     2.78643659
H     -1.43971261    -2.36884201     1.75247877
H     -0.42553232    -2.44011728     2.99232487
O      1.46941129    -2.44530265     2.66742870
H      1.81887010    -1.57378171     2.77956590
H      1.24840196    -2.56261032     1.75815840
36
water clusters ood_size frame=213
O      2.85241072     0.02386614    -0.07846905
H      2.45419372     0.70355091    -0.00134133
H      3.00663099    -0.23714333     0.92056848
O      1.45081233     2.40479840     0.04419410
H      1.40173390     2.40008471     0.91762914
H      2.34707165     2.49378875    -0.26511424
O     -1.34012084     2.38229005     0.06857493
H     -1.81369984     1.56493148     0.09993601
H     -1.29077600     2.49116518     0.96020278
O     -2.74838457    -0.00055822     0.05717562
H     -2.81529901     0.15153718     1.08671612
H     -1.90458476    -0.00703430    -0.43476041
O     -1.25073372    -2.41701887     0.02513374
H     -0.35519204    -2.38809933    -0.16596109
H     -1.60489806    -2.36311874     0.91180481
O      1.32932945    -2.40322305     0.04796115
H      1.48602321    -2.29357397     1.04879862
H      2.35068452    -2.37211993    -0.25454183
O      2.83837909     0.07357415     2.65236508
H      2.86563659    -0.02434413     1.72847319
H      3.63394763    -0.06174436     2.87004134
O      1.37160731     2.41708161     2.77066772
H      0.44551975     2.37661277     2.68859998
H      1.67966079     2.42300616     1.68798870
O     -1.45571206     2.45127868     2.70245117
H     -1.44105505     2.43619409     1.76629226
H     -0.47782832     2.47997914     3.05990038
O     -2.84637905    -0.04180680     2.76589654
H     -2.27953822    -0.86912915     2.79388292
H     -2.91019528     0.16110048     1.84694562
O     -1.24841617    -2.35085020     2.72903495
H     -1.47588568    -2.29085323     1.74392731
H     -0.41298891    -2.33161986     2.83120465
O      1.28820401    -2.25693732     2.75031872
H      1.73183006    -1.57246873     2.58109114
H      1.19373501    -2.68695407     1.87302230
36
water clusters ood_size frame=214
O      2.65966531     0.02224587     0.06501089
H      2.36634691     0.83156263     0.17697286
H      2.93118445    -0.24510625     0.83292372
O      1.30007930     2.44819190    -0.05429288
H      1.45845599     2.26931980     1.04075860
H      2.36391467     2.36585882    -0.23167433
O     -1.28551200     2.54714665    -0.00598262
H     -1.74478109     1.55608314    -0.11906363
H     -1.47187293     2.78398684     0.76359901
O     -2.74946036    -0.09803442    -0.05198018
H     -2.55533350    -0.09612955     0.86029047
H     -1.81523142     0.09032297    -0.13245417
O     -1.38799628    -2.32445100     0.06855089
H     -0.43209126    -2.60773286     0.05279874
H     -1.71018772    -2.41811772     0.99648728
O      1.22960201    -2.35187786     0.12226626
H      1.33064014    -2.46480414     0.86067594
H      2.32521376    -2.23412249    -0.27763374
O      2.74428586     0.03745634     2.69320633
H      2.99061945    -0.03815242     1.79417280
H      3.74961598     0.05101643     2.87994714
O      1.61598899     2.43512006     2.68224226
H      0.47708179     2.34361515     2.90375954
H      1.60975054     2.26617833     1.94541008
O     -1.45700324     2.44301531     2.85110426
H     -1.55116452     2.47447448     1.70627157
H     -0.45817780     2.38512534     3.03541785
O     -2.93110784    -0.00861440     2.76049274
H     -2.30941424    -0.72136345     2.94657436
H     -2.87352870     0.07372382     1.79704833
O     -1.40295182    -2.21225401     2.89641768
H     -1.33608902    -2.37078588     1.67954939
H     -0.50072155    -2.42665290     2.70432841
O      1.39200008    -2.29756057     2.81822572
H      1.86331143    -1.60776646     2.57655550
H      1.12018318    -2.64602628     1.73528046
36
water clusters ood_size frame=215
O      2.73355014    -0.01123900    -0.02744124
H      2.32181781     0.80934289    -0.00278819
H      2.95193663    -0.21720826     0.90762412
O      1.41881797     2.43497238     0.07152181
H      1.34338407     2.33031642     0.93393288
H      2.41977456     2.34773834    -0.28126965
O     -1.39119217     2.42003150    -0.02087910
H     -1.86575235     1.68218241     0.04957003
H     -1.25698506     2.63664117     0.93648949
O     -2.71137118     0.01058928     0.00399181
H     -2.72574623     0.03422636     1.01768919
H     -1.76970227    -0.00901230    -0.18851093
O     -1.43120476    -2.47820426    -0.07550485
H     -0.55054192    -2.43381254     0.03048692
H     -1.61943436    -2.33958452     0.93823242
O      1.37829683    -2.41410519    -0.09039174
H      1.34981584    -2.36831224     1.04931593
H      2.27578478    -2.45527483    -0.24461974
O      2.76973103    -0.10098022     2.74811343
H      2.73930231    -0.00229567     1.74955455
H      3.64390711     0.06116946     2.98151709
O      1.47996335     2.33259913     2.70365715
H      0.36696180     2.34432310     2.74812196
H      1.56728210     2.37358523     1.81181056
O     -1.38925472     2.42084684     2.74166123
H     -1.31671408     2.48092752     1.74943225
H     -0.37978071     2.47638148     2.91284007
O     -2.77775290    -0.00612111     2.66555950
H     -2.34037985    -0.80076393     2.69598779
H     -2.87501612     0.26609604     1.78041973
O     -1.44689597    -2.37838343     2.65594806
H     -1.26135440    -2.43417813     1.74298531
H     -0.43166520    -2.34411136     3.04170611
O      1.35109216    -2.41289628     2.73377317
H      1.84114929    -1.55818797     2.71997705
H      1.21282886    -2.68193418     1.80443152
36
water clusters ood_size frame=216
O      2.74493903     0.02358189     0.02383493
H      2.41454236     0.80127454     0.10038111
H      2.83044531    -0.18291496     1.01220499
O      1.37782163     2.31596029    -0.05426997
H      1.43318531     2.32011017     1.01814070
H      2.28920350     2.42284455    -0.14179331
O     -1.34345562     2.36289207    -0.06410442
H     -1.78633319     1.54622034     0.00988958
H     -1.21659817     2.55741538     1.00116584
O     -2.80870421    -0.04033742    -0.14465061
H     -2.77821434     0.04606339     1.03033235
H     -1.90355420    -0.04897291    -0.15478083
O     -1.36594580    -2.48570909    -0.00595636
H     -0.43610849    -2.41394964    -0.00565243
H     -1.59078939    -2.36911641     0.96487652
O      1.37391679    -2.50097569     0.00482545
H      1.52947283    -2.37188161     0.98275881
H      2.28132858    -2.49709210    -0.29495971
O      2.69961623     0.10623044     2.74269089
H      2.74166919    -0.00309435     1.85296961
H      3.52404511    -0.02714996     2.99309357
O      1.31288563     2.44582969     2.66266190
H      0.46018341     2.40174117     2.69673366
H      1.66120738     2.32649960     1.81252512
O     -1.32412744     2.40836848     2.56180695
H     -1.37871892     2.37795682     1.75161949
H     -0.40829400     2.36653910     2.93544842
O     -2.73871222    -0.04764642     2.65890476
H     -2.27113793    -0.86305381     2.67618952
H     -2.79200045     0.09844842     1.91231353
O     -1.49266020    -2.54954203     2.67843180
H     -1.33337157    -2.52888069     1.80217620
H     -0.48687780    -2.33401139     2.88793016
O      1.41737078    -2.29615407     2.68688585
H      1.74427732    -1.42112761     2.75910091
H      1.09208512    -2.57069388     1.85285916
36
water clusters ood_size frame=217
O      2.69517193    -0.01147473    -0.04972422
H      2.13645194     0.73039709     0.01743015
H      2.94125964    -0.23686492     0.90826068
O      1.52646461     2.35002003     0.11265411
H      1.36121150     2.59826859     0.92713241
H      2.36055696     2.39075073    -0.32864563
O     -1.45785918     2.51162732     0.05768683
H     -1.83299383     1.46861228     0.08443566
H     -1.05290656     2.43083377     0.79308398
O     -2.69218786    -0.20352978     0.05355788
H     -2.69672917    -0.16361350     1.09701058
H     -1.88010522    -0.21817436    -0.23337831
O     -1.31025153    -2.40661118    -0.05399612
H     -0.51954248    -2.38900300    -0.19873586
H     -1.64703326    -2.48831847     1.05120372
O      1.34913952    -2.50375598    -0.01975291
H      1.25220860    -2.52439505     0.92982901
H      2.47967503    -2.50506874    -0.25444288
O      2.84951879    -0.05439809     2.71794204
H      2.85343533    -0.01286707     1.75677867
H      3.61139861    -0.08101618     2.79597476
O      1.39494288     2.33269658     2.64582885
H      0.60290726     2.43273726     2.97058988
H      1.69360719     2.19739102     1.82873434
O     -1.40718101     2.49586546     2.78961737
H     -1.29907305     2.42610977     1.86120393
H     -0.47959213     2.54695064     2.97454537
O     -2.65937209     0.03382851     2.75383381
H     -2.19453143    -0.82660462     2.64667572
H     -2.77511079     0.27591703     1.95111978
O     -1.23919133    -2.38316411     2.76098171
H     -1.30388606    -2.27918822     1.73159579
H     -0.44281137    -2.57375901     2.77713790
O      1.36776766    -2.42713052     2.78939418
H      1.90332275    -1.67710820     2.84847466
H      1.21466219    -2.66884282     1.89545000
36
water clusters ood_size frame=218
O      2.71634196    -0.06286225     0.03642372
H      2.23336082     0.78772048    -0.05607618
H      2.97505050    -0.28312604     1.01330620
O      1.39325657     2.42039940    -0.00795833
H      1.37508281     2.35924544     1.02142081
H      2.33132478     2.42626796    -0.28872804
O     -1.33274130     2.33996808     0.06808425
H     -1.78878730     1.58020723     0.00014460
H     -1.22930188     2.64038783     0.86787786
O     -2.76276421    -0.00777654    -0.03313200
H     -2.82234620     0.05788519     0.98551341
H     -1.82268863    -0.00448871    -0.23066311
O     -1.44569965    -2.30406717    -0.01523682
H     -0.42076597    -2.28953238     0.00003471
H     -1.59687863    -2.37671812     0.87679830
O      1.43164947    -2.32250396     0.05104511
H      1.50014258    -2.31916282     0.84276558
H      2.24870965    -2.45126489    -0.20889386
O      2.66522526    -0.00730882     2.70285634
H      2.68825299    -0.06292214     1.68444552
H      3.70737710     0.02047255     2.91616361
O      1.29353886     2.41286667     2.67651303
H      0.41554413     2.39269727     2.70265024
H      1.59776837     2.42241999     1.86666724
O     -1.38377386     2.51113506     2.69306211
H     -1.43447006     2.42664606     1.77489960
H     -0.48324429     2.43147899     2.92561369
O     -2.79308511     0.01168869     2.74248045
H     -2.33340257    -0.92832483     2.67589453
H     -2.76761023     0.21597947     1.81934622
O     -1.35051958    -2.36588593     2.76237798
H     -1.43050419    -2.40108538     1.80289653
H     -0.49149039    -2.37424830     2.94830057
O      1.36367330    -2.28032936     2.77396954
H      1.89476036    -1.55277778     2.65250544
H      1.29348251    -2.55572012     1.81462065
36
water clusters ood_size frame=219
O      2.77759270     0.13239523     0.06352965
H      2.38929364     0.87583411     0.03573048
H      2.83759458    -0.29474942     0.85382481
O      1.35175678     2.27092610     0.05907157
H      1.42054033     2.53296150     1.03292492
H      2.37784373     2.33609888    -0.19871356
O     -1.37349996     2.30300554     0.09880800
H     -1.80809783     1.41885539     0.00383975
H     -1.35220350     2.52240989     1.03126460
O     -2.63119427    -0.05643079     0.01913915
H     -2.62861891    -0.07216639     1.01290211
H     -1.87417922     0.09021051    -0.23167528
O     -1.37075336    -2.42395629     0.07649443
H     -0.45783988    -2.31440027    -0.04945648
H     -1.60695262    -2.47868937     0.82460965
O      1.56677496    -2.56524001    -0.08976968
H      1.44946602    -2.31706776     1.10905210
H      2.39787447    -2.50767186    -0.21663641
O      2.84544666     0.00030976     2.63640624
H      2.83339094     0.04749822     1.70460665
H      3.65729219    -0.06132225     2.95119248
O      1.39083257     2.50017226     2.70142777
H      0.38986037     2.25156062     2.71866538
H      1.66147055     2.35444300     1.87033249
O     -1.39355392     2.32077617     2.68690179
H     -1.37267416     2.34768333     1.74303270
H     -0.27529490     2.38086354     3.11813629
O     -2.60660801     0.09612261     2.70903496
H     -2.30241697    -0.81112196     2.59926267
H     -3.00526825     0.05032213     1.78182206
O     -1.48121073    -2.41752929     2.76277744
H     -1.32513640    -2.38861031     1.82677145
H     -0.38302266    -2.32137657     2.91519200
O      1.39838962    -2.42167137     2.69440497
H      1.93302452    -1.51388697     2.65209842
H      1.19729648    -2.57217121     1.86271282
36
water clusters ood_size frame=220
O      2.80239601     0.00679535    -0.06667840
H      2.19998632     0.89194895    -0.03061734
H      2.75104508    -0.30600358     0.83758419
O      1.52052794     2.33792064    -0.00976240
H      1.42767787     2.32748154     0.92136691
H      2.26921755     2.44515923    -0.32741016
O     -1.52605779     2.45695802    -0.05881801
H     -1.90182329     1.63297476    -0.02004293
H     -1.33337093     2.48243140     0.95436340
O     -2.85726672    -0.24496523    -0.18042159
H     -2.90094717     0.06795121     0.98689529
H     -1.95513846    -0.20176526    -0.08232002
O     -1.39383997    -2.23175243     0.03571366
H     -0.52532466    -2.43094754     0.01656079
H     -1.40675362    -2.25282849     0.83766374
O      1.49756654    -2.51725043     0.00801222
H      1.36658514    -2.26598064     1.01254483
H      2.30271860    -2.43658663    -0.11310761
O      2.68896088     0.05232039     2.73007933
H      2.80042435    -0.14531315     1.73423345
H      3.66313723     0.09632660     3.05693516
O      1.29626138     2.48250156     2.78017228
H      0.22480996     2.39377146     2.61993985
H      1.88964020     2.12604890     1.83256831
O     -1.34061932     2.26925316     2.75561898
H     -1.52238364     2.38100114     1.93993553
H     -0.42262329     2.42881242     2.76894290
O     -2.71519775     0.01337856     2.55163242
H     -2.17456261    -0.87014702     2.67998453
H     -3.02008501     0.10568786     1.73220218
O     -1.61368089    -2.27926622     2.74109960
H     -1.48842990    -2.35804865     1.93371761
H     -0.47737174    -2.20050250     3.05187631
O      1.33087082    -2.46611915     2.73848027
H      1.84172530    -1.41196706     2.74720985
H      1.34071213    -2.56305879     1.75446989
36
water clusters ood_size frame=221
O      2.69197078    -0.09970176    -0.02734165
H      2.25730752     0.79781025     0.00203841
H      2.85643530    -0.20336416     0.86548097
O      1.38557809     2.44295479     0.05674158
H      1.38210975     2.34379104     0.88739396
H      2.36664250     2.38893849    -0.27768256
O     -1.37270986     2.39919763     0.05580050
H     -1.90398866     1.62738554     0.00016868
H     -1.24077553     2.58873720     0.91059597
O     -2.75887233    -0.02370852     0.05763300
H     -2.78114927    -0.00051698     0.96175524
H     -1.84755944    -0.05211591    -0.20821104
O     -1.35090899    -2.38841951     0.03493760
H     -0.45788101    -2.38772313     0.00396443
H     -1.64866186    -2.39451979     0.99302636
O      1.45249901    -2.39736481     0.06237085
H      1.33120936    -2.39994696     0.88804869
H      2.27483501    -2.43432304    -0.14769731
O      2.77993514     0.10327831     2.69538898
H      2.71408850     0.01009742     1.76390555
H      3.65647776     0.07112880     2.96001187
O      1.42385709     2.47355825     2.73006553
H      0.40194161     2.38310145     2.69407767
H      1.57277585     2.32253843     1.74518485
O     -1.40954287     2.46593177     2.68709878
H     -1.37693165     2.40555925     1.78058288
H     -0.45726369     2.35667454     3.03871309
O     -2.74210144     0.03391452     2.65292356
H     -2.22763252    -0.87096068     2.79998749
H     -2.93389418     0.26163536     1.82854674
O     -1.39834878    -2.35610796     2.67869784
H     -1.44127002    -2.48755121     1.72554862
H     -0.43477610    -2.42787183     2.96849899
O      1.32711252    -2.37776878     2.79714670
H      1.88193380    -1.50958854     2.74495657
H      1.33514686    -2.57236890     1.81812530
36
water clusters ood_size frame=222
O      2.69356799     0.10340188    -0.09531713
H      2.29056980     0.87670135    -0.02650255
H      2.89899609    -0.26515956     0.96843528
O      1.45475359     2.31567344    -0.05362561
H      1.41341402     2.41401915     1.00628061
H      2.38806061     2.36820281    -0.29219608
O     -1.32146843     2.36643315    -0.09434941
H     -1.79427314     1.48731306     0.01766023
H     -1.23246097     2.58595599     0.98353964
O     -2.78193920    -0.06416883    -0.05251088
H     -2.84757365    -0.06914665     1.05939635
H     -1.69232614    -0.02723236    -0.25337834
O     -1.38894777    -2.47774942     0.05220174
H     -0.32837369    -2.52990769    -0.07071108
H     -1.61480979    -2.40984067     1.01725863
O      1.39171765    -2.38186561    -0.00430039
H      1.37136616    -2.46675140     0.91027767
H      2.37509053    -2.43622774    -0.20430540
O      2.81172141     0.05437953     2.64334189
H      2.71787099    -0.00116174     1.86001399
H      3.69051849     0.07805086     3.10219384
O      1.34884111     2.38886869     2.68199756
H      0.43973339     2.37103858     2.68703421
H      1.70512136     2.39539530     1.91742049
O     -1.35891360     2.40250835     2.75198301
H     -1.46110385     2.47265583     1.77773606
H     -0.50207156     2.47658308     2.95489322
O     -2.80806546    -0.12126300     2.81579523
H     -2.09457163    -0.77925762     2.76795602
H     -2.89935987     0.22539275     1.91019342
O     -1.41168133    -2.38901051     2.80862509
H     -1.33708599    -2.42453842     1.68107343
H     -0.51261857    -2.37544604     2.98029780
O      1.29882799    -2.35874017     2.65337101
H      1.85209889    -1.49587293     2.73816042
H      1.26147112    -2.65333986     1.80047809
36
water clusters ood_size frame=223
O      2.77060257     0.10186007    -0.01988812
H      2.33139088     0.97331229    -0.10731362
H      2.75993205    -0.28209720     0.92585417
O      1.30999638     2.44352816     0.05339944
H      1.48683509     2.40645030     0.96424711
H      2.39341675     2.24267189    -0.19353679
O     -1.30648258     2.38686903    -0.01405292
H     -1.76166780     1.60626247     0.00487415
H     -1.14403553     2.70529036     0.72561519
O     -2.82235332    -0.30911683    -0.03057995
H     -2.72437780     0.19938784     0.96785111
H     -1.85355926     0.05445872    -0.42183230
O     -1.26854298    -2.37597851     0.06674463
H     -0.39057287    -2.42648002    -0.03052279
H     -1.51613557    -2.40606793     0.93687114
O      1.25824579    -2.45064778     0.11131251
H      1.28134864    -2.57659134     0.87125107
H      2.28847126    -2.41416306    -0.46194400
O      2.80056123    -0.00067243     2.67119770
H      2.70950724     0.04154198     1.87846618
H      3.66010578    -0.10879665     3.04056923
O      1.35016392     2.30286196     2.62660020
H      0.48404136     2.38569374     2.76624355
H      1.58554588     2.42876696     1.81611003
O     -1.35526917     2.56007673     2.89340769
H     -1.48387339     2.40921936     1.73233269
H     -0.61888434     2.27285777     2.97238172
O     -2.85634088     0.00889342     2.79562432
H     -2.14135813    -0.84140854     2.78054615
H     -2.82027010     0.20052705     1.84190179
O     -1.37540120    -2.39770529     2.64468741
H     -1.28152808    -2.34490019     1.88746846
H     -0.26057994    -2.42994534     2.83888783
O      1.39746047    -2.63862318     2.64926830
H      1.93781755    -1.69713307     2.72764278
H      1.26623273    -2.60691862     1.78393632
36
water clusters ood_size frame=224
O      2.74704612     0.03926812    -0.01858359
H      2.37309167     0.82892589     0.05375550
H      2.86678263    -0.30160811     1.03552542
O      1.27239066     2.37913943    -0.06055631
H      1.34358219     2.37377192     0.90805168
H      2.22255240     2.34291986    -0.26129801
O     -1.46072909     2.39323866    -0.06313519
H     -1.84688760     1.66404109     0.06355176
H     -1.29136940     2.65836207     0.95830228
O     -2.79561396    -0.08050828    -0.02347023
H     -2.80946423     0.04067716     0.97355761
H     -1.88595638    -0.00802150    -0.30371296
O     -1.34710787    -2.43620553     0.03338175
H     -0.56366358    -2.41402843     0.00511960
H     -1.58796006    -2.42068983     0.98490885
O      1.42234255    -2.51119260    -0.09741177
H      1.31546004    -2.50673658     0.99842276
H      2.25703029    -2.36040400    -0.17743063
O      2.77382712     0.01167175     2.73544970
H      2.73953817    -0.01848468     1.71591497
H      3.66158781     0.04205509     2.98495061
O      1.42722300     2.29853103     2.67674648
H      0.44667322     2.43026217     2.76072457
H      1.59138785     2.38102350     1.73100089
O     -1.37957341     2.43682787     2.71126847
H     -1.42939210     2.42215429     1.81103106
H     -0.41193655     2.41535430     2.92999060
O     -2.70864549    -0.01446201     2.62290423
H     -2.27317671    -0.79600878     2.70445142
H     -2.84313499     0.16941017     1.77517772
O     -1.37548757    -2.41574677     2.70576534
H     -1.35830959    -2.33429352     1.76394975
H     -0.44644490    -2.42012084     3.00776273
O      1.41485403    -2.36425111     2.64279971
H      1.91356628    -1.62996179     2.77357820
H      1.24585388    -2.52897827     1.78371109
36
water clusters ood_size frame=225
O      2.64450337    -0.10309064     0.00658845
H      2.23977089     0.77457775    -0.01238231
H      2.96974133    -0.28812088     1.02712120
O      1.26229818     2.36009594    -0.06467989
H      1.33943890     2.45044102     1.00688785
H      2.26244497     2.23689083    -0.28109163
O     -1.31852210     2.36122491     0.01919584
H     -1.95364238     1.52465118    -0.00216974
H     -1.24234578     2.60682635     1.02917938
O     -2.82522303    -0.01929425    -0.02203266
H     -2.67026307    -0.00904062     0.94198496
H     -1.86072778    -0.06646509    -0.23865998
O     -1.30173539    -2.33359355     0.01115383
H     -0.42817518    -2.35938712     0.01681101
H     -1.60266210    -2.39915391     0.91582542
O      1.52301508    -2.34271833    -0.04126207
H      1.45347459    -2.45971429     1.05373556
H      2.30668729    -2.39887350    -0.20578326
O      2.92085943    -0.04171745     2.70030811
H      2.79235629     0.01179499     1.87801383
H      3.66128442    -0.05383705     2.99346167
O      1.40518600     2.45991467     2.69233134
H      0.38302177     2.47528469     2.79573437
H      1.67623264     2.49747565     1.68820599
O     -1.35905093     2.32548948     2.74635183
H     -1.28068777     2.37671336     1.68107269
H     -0.52223237     2.51195024     2.94257446
O     -2.72052416     0.00638255     2.80378993
H     -2.29074781    -0.86330184     2.70533858
H     -2.95569521     0.17189446     1.71846963
O     -1.41113058    -2.40603848     2.74624318
H     -1.38429439    -2.41112566     1.73085619
H     -0.59439493    -2.44987302     2.92558606
O      1.42388408    -2.55222666     2.66050018
H      1.80916937    -1.66126138     2.82075914
H      1.28958918    -2.53991240     1.89903500
36
water clusters ood_size frame=226
O      2.67186727     0.04598205    -0.02146186
H      2.21453070     0.92383837     0.00310039
H      2.78864224    -0.18592939     0.93144843
O      1.38196340     2.36226276     0.04984187
H      1.39733100     2.32842203     0.94454919
H      2.15933972     2.48730036    -0.13534750
O     -1.34367910     2.31937309     0.01372443
H     -2.07321531     1.46421593     0.01265306
H     -1.28502820     2.47352077     0.91108931
O     -2.87377473    -0.08016809    -0.00509859
H     -2.89899269    -0.27160289     1.01579115
H     -1.94054807     0.12620261    -0.22815410
O     -1.43554140    -2.40616440    -0.05507012
H     -0.55908725    -2.46741568     0.00875536
H     -1.70244111    -2.37621067     0.95394066
O      1.33078120    -2.33284976     0.01076259
H      1.40091550    -2.47235215     1.08472392
H      2.08141035    -2.50181556    -0.25866363
O      2.76835673    -0.08767310     2.66604597
H      2.65849767    -0.00783074     1.70902426
H      3.73979357    -0.07842168     2.96298040
O      1.26706510     2.48624953     2.84704795
H      0.37046186     2.19513095     2.68519814
H      1.65486335     2.39499044     1.79572491
O     -1.42348513     2.37540319     2.65676660
H     -1.39140076     2.55682921     1.71035043
H     -0.48827087     2.31649927     2.92577450
O     -2.73478307    -0.18064503     2.62457964
H     -2.31381395    -1.07571993     2.67537616
H     -2.90139290     0.20467274     1.96709850
O     -1.38338236    -2.49502991     2.78532511
H     -1.52088939    -2.30714079     1.85860043
H     -0.43599599    -2.41071472     3.04655899
O      1.30681238    -2.34570015     2.63128789
H      1.76088877    -1.48611571     2.68993055
H      1.35345826    -2.63325219     1.81805206
36
water clusters ood_size frame=227
O      2.72269659    -0.05331119    -0.04270133
H      2.28069021     0.74114972    -0.03956713
H      2.90380170    -0.14788570     0.92253797
O      1.35150081     2.44453591    -0.10948340
H      1.30923668     2.37321738     0.94491462
H      2.29772492     2.45761526    -0.24291478
O     -1.36978040     2.48352142    -0.08982629
H     -1.80865078     1.60054996    -0.00399699
H     -1.14885224     2.55261649     0.98653878
O     -2.73084936     0.01339900    -0.00057916
H     -2.69550527    -0.00021883     0.95610871
H     -1.73343617    -0.07459032    -0.24623848
O     -1.40779102    -2.37714223    -0.03428765
H     -0.44619217    -2.37621300    -0.06458482
H     -1.66570258    -2.41794833     0.82668601
O      1.31151476    -2.46863624     0.00666682
H      1.42613307    -2.42819037     0.96764391
H      2.32653331    -2.41778661    -0.18397687
O      2.76584047    -0.00943814     2.75968199
H      2.73078356    -0.06102439     1.87475588
H      3.68832169     0.02142931     2.94820891
O      1.40369847     2.40339287     2.69202076
H      0.39847121     2.42159602     2.69288231
H      1.63928151     2.33704777     1.75758498
O     -1.33430619     2.28426209     2.70354825
H     -1.33272498     2.45093989     1.80606528
H     -0.42049731     2.36437482     3.02319416
O     -2.82989061     0.01461736     2.75624976
H     -2.33334975    -0.83749699     2.79019197
H     -2.86203847     0.18159970     1.81613030
O     -1.32350135    -2.38956292     2.62410525
H     -1.32882027    -2.35538275     1.71236324
H     -0.41045737    -2.45917037     3.05038574
O      1.25166296    -2.40618039     2.71856211
H      1.90862693    -1.61931960     2.75712400
H      1.29393515    -2.63621244     1.85828292
36
water clusters ood_size frame=228
O      2.74373492    -0.01908766    -0.14361934
H      2.28803370     0.85639765    -0.06867157
H      2.98776352    -0.24348067     0.85316388
O      1.29958752     2.41011626     0.05865096
H      1.34437655     2.27358404     0.99241868
H      2.28944575     2.32083154    -0.17496497
O     -1.33538736     2.24292710    -0.14244099
H     -1.98726537     1.46562764     0.10257498
H     -1.27371751     2.56172605     0.90290021
O     -2.72606951     0.01640100    -0.03360028
H     -2.75141309     0.02664311     0.93207078
H     -1.83507882    -0.04937073    -0.23185751
O     -1.42120067    -2.34976946     0.04903168
H     -0.42804548    -2.46986456     0.07991292
H     -1.65527284    -2.31881521     0.92898716
O      1.36272901    -2.41420709    -0.08956291
H      1.37218151    -2.43070285     0.98577919
H      2.26727587    -2.35536103    -0.17393242
O      2.75399058     0.01058748     2.76010124
H      2.79422205    -0.06701526     1.73639318
H      3.76123924     0.03954561     2.98798628
O      1.31997646     2.32585223     2.65397699
H      0.36261098     2.40075385     2.83637456
H      1.49621153     2.38101911     1.85761925
O     -1.32847847     2.43861217     2.63160393
H     -1.44792455     2.46048794     1.78918303
H     -0.55138213     2.36804415     2.96398182
O     -2.75524958     0.08323467     2.69318542
H     -2.20528129    -0.77537119     2.61607397
H     -2.80062255     0.27257235     1.74051604
O     -1.33827051    -2.42150796     2.76030918
H     -1.29637628    -2.45259231     1.72391949
H     -0.33953982    -2.47069398     2.96434157
O      1.37746908    -2.32009045     2.83284996
H      1.89326007    -1.58769515     2.66360948
H      1.16096369    -2.69315058     1.81676194
36
water clusters ood_size frame=229
O      2.88835742     0.11621775    -0.07597300
H      2.46344228     0.75542726    -0.11940943
H      2.75551339    -0.03215318     0.85449893
O      1.36907761     2.50387516     0.00299406
H      1.66163235     2.47941798     1.02766802
H      2.24921207     2.32338810    -0.22043370
O     -1.44026749     2.32010716    -0.08638940
H     -1.90612474     1.46974671     0.00931100
H     -1.33027332     2.66643922     1.01794317
O     -2.57741333    -0.08381568     0.01898231
H     -2.76901576     0.10606867     0.94499566
H     -1.76818376     0.03123823    -0.19413302
O     -1.45652480    -2.44290749     0.01260254
H     -0.49038209    -2.40733569    -0.12411575
H     -1.52228538    -2.40236128     1.07209842
O      1.27362623    -2.22481298     0.07291333
H      1.32307722    -2.35138708     1.25631324
H      2.36249351    -2.34957330    -0.32205541
O      2.77275005    -0.17624232     2.56865061
H      2.84767712     0.03536685     1.72548931
H      3.65695174    -0.02313781     3.03755388
O      1.27579161     2.50849966     2.71992501
H      0.49580949     2.52493162     2.68535731
H      1.48439406     2.33779299     1.80357242
O     -1.48829562     2.33726515     2.80298498
H     -1.36984968     2.44468175     1.82861233
H     -0.47725996     2.23699355     2.80634866
O     -2.61182002     0.13245705     2.66345242
H     -2.33797722    -0.82705843     2.77139129
H     -3.04643994     0.04114722     1.96249175
O     -1.40245581    -2.43974950     2.53376070
H     -1.35957040    -2.44446185     1.65787713
H     -0.46058564    -2.35360056     2.64177873
O      1.40543922    -2.38655015     2.74519085
H      1.77950140    -1.49753896     2.75567618
H      1.22119127    -2.68414444     1.88856324
36
water clusters ood_size frame=230
O      2.73941845    -0.05350120    -0.01810208
H      2.34922716     0.91254759    -0.08542007
H      2.86854285    -0.15231192     0.92165068
O      1.39268947     2.44697989    -0.05693409
H      1.41394688     2.40910515     0.99651417
H      2.36700810     2.41715999    -0.32109738
O     -1.33558962     2.38423700    -0.00941977
H     -1.89193194     1.61223728    -0.07439707
H     -1.28444197     2.58326101     0.92596077
O     -2.81746063     0.03453909    -0.00108879
H     -2.71462635     0.09893903     1.03897587
H     -1.73899142    -0.00515896    -0.22417936
O     -1.35319128    -2.39140474    -0.09201974
H     -0.34762238    -2.43707345    -0.01314990
H     -1.60699409    -2.44748388     1.01335170
O      1.38459628    -2.39616205     0.06500891
H      1.41382038    -2.32680402     0.93316785
H      2.38410337    -2.47932835    -0.27009430
O      2.73938958    -0.05781217     2.70864065
H      2.68954072    -0.00786229     1.80959427
H      3.67737544     0.01655624     2.98900237
O      1.41014275     2.39950784     2.72179758
H      0.38329660     2.39800225     2.71077172
H      1.56204028     2.39631653     1.74938840
O     -1.38701940     2.32258674     2.62561781
H     -1.39415071     2.38382203     1.81337338
H     -0.37940536     2.40051617     2.89549926
O     -2.72993096     0.02975364     2.79081307
H     -2.26062027    -0.87100985     2.73965887
H     -2.84002964     0.25853994     1.71179790
O     -1.41391943    -2.40208200     2.65943075
H     -1.30750037    -2.33073700     1.78321972
H     -0.46334452    -2.50404875     2.96149041
O      1.37594226    -2.37313389     2.70827546
H      1.94813985    -1.58011511     2.72519099
H      1.30513496    -2.61287635     1.83517368
36
water clusters ood_size frame=231
O      2.74237567    -0.00163948    -0.05568836
H      2.32176292     0.95232273     0.18739011
H      2.78992058    -0.19856185     0.81463157
O      1.28333049     2.24227926    -0.03239613
H      1.33694447     2.33128398     0.99376454
H      2.23662024     2.38535646    -0.23155614
O     -1.35701962     2.38241657     0.09760722
H     -1.71868033     1.62196835     0.03144061
H     -1.33353001     2.54962292     0.92814196
O     -2.82307842     0.10515616     0.03320797
H     -2.82123498     0.07180643     1.04581236
H     -1.75820462    -0.04366066    -0.31684712
O     -1.38798909    -2.30499012    -0.11958380
H     -0.32859308    -2.39511696    -0.08057576
H     -1.55706719    -2.48582471     0.96679461
O      1.39607099    -2.37608172     0.00060346
H      1.44923299    -2.32865083     0.92138228
H      2.37956276    -2.29430622    -0.23995819
O      2.66031441    -0.06894866     2.67028083
H      2.72503765     0.03315823     1.75885988
H      3.71493762    -0.11740501     2.89812083
O      1.37600360     2.27951148     2.68998667
H      0.41387960     2.38023554     2.60284653
H      1.58927768     2.37151346     1.76022492
O     -1.42618230     2.40374754     2.70131783
H     -1.41336858     2.36609719     1.76098847
H     -0.28379546     2.47380300     3.04241024
O     -2.72062279     0.03205107     2.78091324
H     -2.31111628    -0.83874513     2.79584163
H     -2.81806934     0.08184694     1.84893707
O     -1.35232210    -2.44329898     2.91121806
H     -1.42985484    -2.35498077     1.77893945
H     -0.53919654    -2.28570614     2.99539754
O      1.33190986    -2.32087238     2.58227791
H      1.89373079    -1.63317321     2.57250542
H      1.26460740    -2.66690676     1.74436332
36
water clusters ood_size frame=232
O      2.80936909    -0.06519228     0.01275181
H      2.25914496     0.79274493     0.05167486
H      2.97801179    -0.39546019     0.95171105
O      1.33299402     2.30408102    -0.15978750
H      1.27881568     2.33981420     0.89356251
H      2.36422598     2.29629650    -0.36920875
O     -1.42796878     2.24747458     0.12816633
H     -1.75760316     1.45162930     0.03704542
H     -1.29435934     2.71431058     1.01889686
O     -2.67714417     0.08590550    -0.03131963
H     -2.89544708     0.06251763     0.96229301
H     -1.96195376    -0.08515508    -0.29526894
O     -1.39629889    -2.40031116     0.09991071
H     -0.51686605    -2.48317050    -0.07597286
H     -1.64335768    -2.49656411     1.00846419
O      1.35606687    -2.34379445    -0.06734327
H      1.35594469    -2.39188034     0.92957966
H      2.48838976    -2.47888504    -0.25659848
O      2.76035714    -0.01732463     2.73712698
H      2.71418618    -0.00944102     1.63099923
H      3.64757938     0.10173689     2.90372973
O      1.52554298     2.29431864     2.67353273
H      0.51650396     2.64066724     2.95756927
H      1.74041909     2.37936479     1.80274600
O     -1.46647877     2.54772234     2.84397361
H     -1.41321210     2.50369666     1.80274826
H     -0.37294070     2.34386801     2.87401172
O     -2.62347730     0.21994044     2.70074744
H     -2.28356292    -0.88941555     2.61601755
H     -2.88159471     0.28806831     1.70095066
O     -1.28087686    -2.41216333     2.76177460
H     -1.30247077    -2.36379123     1.75436796
H     -0.43359530    -2.40430507     3.05944231
O      1.33388739    -2.47202414     2.77323044
H      1.73471210    -1.47589243     2.78910094
H      1.24261575    -2.76126265     1.76834728
36
water clusters ood_size frame=233
O      2.78958098    -0.01775451     0.01456606
H      2.21717971     0.87067857     0.03459237
H      3.02717964    -0.28142524     0.94951402
O      1.45939988     2.30631483     0.07302282
H      1.32788721     2.34821621     0.92878945
H      2.30967758     2.38856086    -0.19298501
O     -1.43424853     2.39368739     0.03572497
H     -1.84793210     1.58321705     0.03090086
H     -1.26884750     2.53717258     0.93545798
O     -2.76527686     0.02037099    -0.09373529
H     -2.84010816    -0.04523078     1.01643415
H     -1.80450148    -0.06964893    -0.18898463
O     -1.38793642    -2.36606688    -0.00878668
H     -0.41177082    -2.40027736    -0.00756817
H     -1.58314076    -2.38603024     0.82041852
O      1.45855648    -2.37897724    -0.02985078
H      1.40005480    -2.37436725     0.97273671
H      2.25127545    -2.44381453    -0.23751438
O      2.74286746    -0.06877750     2.68965700
H      2.70959489     0.09026571     1.75386672
H      3.72836311    -0.10703094     2.94883576
O      1.32814133     2.45277220     2.65438145
H      0.49508844     2.42182349     2.73980769
H      1.71726104     2.34714096     1.86086765
O     -1.35657266     2.35046422     2.61677911
H     -1.36196992     2.41800606     1.81520608
H     -0.37872032     2.36662291     3.05108750
O     -2.73952943    -0.00617492     2.74957438
H     -2.27912331    -0.81180228     2.71391419
H     -2.83104940     0.16668150     1.79600904
O     -1.32046953    -2.44643633     2.76833636
H     -1.45441756    -2.34737249     1.80120959
H     -0.46078075    -2.43531426     3.05952710
O      1.31414143    -2.42298807     2.72066418
H      1.81163275    -1.56464073     2.77582934
H      1.26784389    -2.59279248     1.81762845
36
water clusters ood_size frame=234
O      2.70694858     0.07896533     0.10992611
H      2.38427217     0.79476914     0.06718157
H      2.90946036    -0.20413645     1.07247878
O      1.34087136     2.34229292    -0.09051438
H      1.39354416     2.41636767     0.86432370
H      2.27360367     2.44185286    -0.17310076
O     -1.31421226     2.43411448    -0.06563168
H     -1.98585336     1.64961945     0.01620516
H     -1.29784221     2.50785485     0.82991418
O     -2.87734872     0.05554079    -0.01118103
H     -2.85630128    -0.16085665     0.85369575
H     -1.66338369     0.04268129    -0.30254659
O     -1.34548296    -2.41785383     0.05814448
H     -0.41534791    -2.33226265     0.06373605
H     -1.63133563    -2.38610958     1.00357658
O      1.47018454    -2.33531988     0.05089140
H      1.25463942    -2.39183159     0.91485544
H      2.21793438    -2.35896791    -0.15573755
O      2.78135175     0.02221719     2.70916890
H      2.80887544     0.00424406     1.65693396
H      3.81286386    -0.05898881     2.87589472
O      1.32817230     2.44920001     2.68607100
H      0.35698885     2.49468418     2.82160594
H      1.59499360     2.33848726     1.66878459
O     -1.44350297     2.41795944     2.69226375
H     -1.31294256     2.30931305     1.67921136
H     -0.31244970     2.54259481     3.11533527
O     -2.77515944    -0.00405007     2.76079717
H     -2.26915604    -0.83763960     2.63000919
H     -2.84062283     0.26647775     1.86206388
O     -1.33335796    -2.30888443     2.62535476
H     -1.38920614    -2.48166875     1.83784513
H     -0.42060756    -2.29068146     2.95381635
O      1.52153106    -2.34864935     2.83396225
H      1.94055663    -1.44418532     2.80233939
H      1.35464635    -2.43495743     1.70303602
36
water clusters ood_size frame=235
O      2.77787987    -0.05005324     0.09253315
H      2.20007139     0.73348015    -0.04255270
H      2.98569536    -0.07704181     0.96432591
O      1.55410175     2.42913354    -0.11863512
H      1.53401155     2.40589079     0.84592678
H      2.46700190     2.40353354    -0.22196573
O     -1.36066572     2.68223912     0.07831063
H     -1.91515015     1.72208035    -0.10548634
H     -1.27130181     2.52839374     0.84382836
O     -2.70071450     0.09858493    -0.04753494
H     -2.96529335     0.05467797     1.13140097
H     -1.81782615    -0.18150707    -0.25641608
O     -1.34835281    -2.44448012     0.04329287
H     -0.45162436    -2.36796912    -0.04481888
H     -1.54262880    -2.39618878     1.01912765
O      1.20419813    -2.27234777    -0.00162231
H      1.30306280    -2.35369312     0.92799206
H      2.04623014    -2.41139944    -0.26631273
O      2.68939562    -0.01856569     2.83266215
H      2.75880404    -0.02400440     1.76471312
H      3.80267274     0.04328845     2.80454012
O      1.43386821     2.29496072     2.76630515
H      0.59778767     2.34963825     2.59493713
H      1.50168927     2.28249311     1.74697084
O     -1.48396537     2.42268580     2.81262148
H     -1.36703781     2.32681769     1.72209129
H     -0.41675790     2.43997624     2.92313531
O     -2.77290875     0.05022211     2.66701364
H     -2.26634752    -0.93555467     2.69379472
H     -2.96847723     0.24464092     1.74344200
O     -1.33518090    -2.51979481     2.71116225
H     -1.57013730    -2.38786612     1.55577002
H     -0.39382831    -2.42009543     2.90455933
O      1.44805111    -2.37860969     2.75556210
H      1.77523140    -1.40790494     2.90731977
H      1.34051918    -2.50826092     1.73934685
36
water clusters ood_size frame=236
O      2.78432444     0.04759719    -0.04365735
H      2.23060765     0.83678512     0.08584861
H      2.92821447    -0.20457478     0.88483077
O      1.35455373     2.36893619     0.09340076
H      1.34266502     2.43294764     1.03345577
H      2.38892935     2.33650653    -0.25479654
O     -1.23889425     2.44655657    -0.07614590
H     -1.82724312     1.52404567     0.10174125
H     -1.28215314     2.48103111     1.01897899
O     -2.73732798     0.03789682     0.02257648
H     -2.77864460     0.03406421     0.92240234
H     -1.80695006    -0.03320799    -0.16434326
O     -1.39268418    -2.40454874     0.04768743
H     -0.43446890    -2.40109873     0.06818897
H     -1.64893653    -2.38621632     0.98492244
O      1.39863019    -2.47725584    -0.10056743
H      1.41896466    -2.41183360     0.95152235
H      2.32268778    -2.33105987    -0.25654116
O      2.70384921     0.04756205     2.69385833
H      2.69326465     0.02846817     1.79393364
H      3.69609540     0.00611598     2.83313807
O      1.37618280     2.45365758     2.78743073
H      0.41928025     2.37361208     2.70866410
H      1.60245948     2.39226214     1.78757122
O     -1.36081993     2.31637873     2.74052592
H     -1.43194791     2.41449823     1.79441577
H     -0.49781449     2.37750203     2.89549469
O     -2.72234894    -0.02201416     2.74676133
H     -2.30714722    -0.84413220     2.72427425
H     -2.81853856     0.17630361     1.84186997
O     -1.41174746    -2.46425910     2.67080528
H     -1.32351212    -2.40247179     1.74221718
H     -0.51633832    -2.48680122     3.03780626
O      1.44085009    -2.29392991     2.69467247
H      1.86655183    -1.56192662     2.72358374
H      1.28670220    -2.53847862     1.73880000
36
water clusters ood_size frame=237
O      2.84263410    -0.01862276     0.04523706
H      2.33610890     0.85934948    -0.05385563
H      2.88341885    -0.17734472     0.88226075
O      1.46097184     2.40507821     0.05109777
H      1.45134596     2.44353036     0.99337874
H      2.22074920     2.38047457    -0.29469680
O     -1.27005952     2.48595306     0.00801633
H     -1.76542011     1.59907654    -0.03365148
H     -1.23306628     2.58353622     0.97635836
O     -2.66168981     0.12351186    -0.04422652
H     -2.75457906     0.06071547     0.86614584
H     -1.73396251    -0.16198686    -0.31555380
O     -1.44173013    -2.34466103     0.06928536
H     -0.49115889    -2.34060704     0.01196738
H     -1.65179153    -2.42028877     0.85484418
O      1.47624773    -2.49899649     0.06669108
H      1.29978148    -2.41708707     1.04525314
H      2.33226232    -2.32818305    -0.19631382
O      2.83748366    -0.07647904     2.81801737
H      2.79500366    -0.21087867     1.80789236
H      3.70072759    -0.11818209     2.96725408
O      1.38450893     2.34274739     2.77410929
H      0.55689851     2.52503916     2.72062113
H      1.65385204     2.50288571     1.82419091
O     -1.39524108     2.47814426     2.72154693
H     -1.34352068     2.26768224     1.73668820
H     -0.39192036     2.49484607     2.91277016
O     -2.65128615    -0.08136776     2.70873144
H     -2.27257187    -0.86100180     2.82651066
H     -2.90559589     0.31271074     1.79530266
O     -1.48599053    -2.28672760     2.62966418
H     -1.36045011    -2.48141979     1.76532148
H     -0.41402796    -2.51807331     2.88509493
O      1.24208086    -2.36100679     2.81375676
H      1.74068914    -1.60304066     2.74010463
H      1.25421725    -2.69260083     1.83538440
36
water clusters ood_size frame=238
O      2.78432585     0.10706178     0.08988120
H      2.21347617     0.73916533    -0.07548028
H      2.86904142    -0.23533530     0.87312109
O      1.39984123     2.36374519    -0.10694284
H      1.41199959     2.39300527     0.88384039
H      2.16782095     2.25745415    -0.24727327
O     -1.48369535     2.49673752     0.14586735
H     -1.96805866     1.53642766     0.09099139
H     -1.40817811     2.76969903     1.22031000
O     -2.63428711    -0.02230682    -0.05018556
H     -2.81709924    -0.10240255     0.75086606
H     -1.84146493    -0.02302818    -0.20570453
O     -1.55243731    -2.34568829     0.04972641
H     -0.37642466    -2.34542754    -0.10553747
H     -1.75850590    -2.27348942     0.89835575
O      1.23498573    -2.39814000     0.17778243
H      1.36951650    -2.31861647     0.91423234
H      2.38537580    -2.35883575    -0.19481943
O      2.62533119     0.17460888     2.76690401
H      2.74042286     0.24009907     1.73982263
H      3.77303882     0.03711292     2.83523269
O      1.36110962     2.43892682     2.65134189
H      0.45554773     2.30384463     2.72126412
H      1.41013373     2.41565039     1.69522888
O     -1.16473489     2.28973041     2.71729101
H     -1.34716373     2.33144631     1.73284162
H     -0.34270108     2.27005784     3.11575777
O     -2.62818881     0.12512626     2.68385203
H     -2.46714031    -0.92753258     2.81918242
H     -2.93743902     0.36090778     1.88331458
O     -1.27405469    -2.46462830     2.71026792
H     -1.38670898    -2.46818617     1.77139742
H     -0.46120715    -2.43751324     2.96984868
O      1.42433483    -2.37036562     2.75993339
H      1.74713459    -1.49615651     2.82208354
H      1.27406832    -2.61912930     1.74701650
36
water clusters ood_size frame=239
O      2.69722124     0.05690919    -0.05080401
H      2.26368262     0.78904875    -0.02630607
H      2.79847793    -0.26787036     0.92192834
O      1.35655215     2.36849014    -0.04115470
H      1.35855298     2.36792698     0.93240835
H      2.36469618     2.36360365    -0.27315292
O     -1.29490068     2.43206917    -0.05941713
H     -1.87849078     1.61314929    -0.03921619
H     -1.30848328     2.61040494     0.89067752
O     -2.70215070     0.09394714     0.07665041
H     -2.74488266    -0.08217799     0.89761241
H     -1.80750844     0.01930236    -0.19752409
O     -1.42243634    -2.46790530     0.03715590
H     -0.39318343    -2.48818911    -0.07487369
H     -1.68429837    -2.47784205     0.92212793
O      1.39682017    -2.36744603    -0.04533001
H      1.35283374    -2.41044089     0.97438811
H      2.27792513    -2.37853922    -0.23828028
O      2.73478906    -0.09205311     2.74483334
H      2.71891734     0.00084203     1.72509760
H      3.69570938    -0.02125467     2.88017531
O      1.35412219     2.32972482     2.79349864
H      0.34915547     2.40299673     2.67285566
H      1.61895480     2.43553809     1.80037417
O     -1.44297535     2.33335828     2.66861393
H     -1.42537431     2.39121855     1.84770172
H     -0.44296585     2.47747940     2.96433937
O     -2.78606623     0.03847959     2.78354715
H     -2.20157059    -0.80728437     2.64751095
H     -2.85576278     0.28452883     1.76454211
O     -1.36245660    -2.43124262     2.73167886
H     -1.34379522    -2.41409768     1.75531839
H     -0.44123145    -2.34194871     3.00535381
O      1.46459671    -2.41870130     2.81516112
H      1.95741446    -1.54966573     2.64927678
H      1.23169828    -2.52301494     1.79861221
36
water clusters ood_size frame=240
O      2.67718762     0.06278245    -0.05333857
H      2.28631519     0.83785734     0.04914804
H      2.81955957    -0.19526394     0.95657846
O      1.40103384     2.42912735    -0.11392345
H      1.41091606     2.41771102     1.02212376
H      2.35763108     2.49354307    -0.39046499
O     -1.45682713     2.36739792    -0.00826439
H     -1.86835322     1.67222666    -0.01357016
H     -1.31613035     2.52167846     0.99500759
O     -2.63860030    -0.02881563    -0.10028006
H     -2.82968441     0.08918519     1.01236595
H     -1.81343236     0.00127738    -0.24844116
O     -1.47852445    -2.27963142     0.03847842
H     -0.32187662    -2.33600318     0.04662520
H     -1.65612652    -2.42156575     0.95924106
O      1.38010768    -2.47381181    -0.03716782
H      1.44656476    -2.50155194     0.93594589
H      2.29686424    -2.46411564    -0.30358095
O      2.63327360    -0.01441142     2.71728689
H      2.78913002     0.02425856     1.68450787
H      3.70654615     0.07903989     2.96592556
O      1.49357828     2.40911310     2.73233511
H      0.46336408     2.46255348     2.62799498
H      1.59594301     2.40980555     1.77363469
O     -1.32171695     2.33758620     2.62819773
H     -1.41756447     2.48235613     1.63530488
H     -0.42469140     2.34546293     2.81464634
O     -2.89324562    -0.11078238     2.71879159
H     -2.20916965    -0.77726882     2.69886769
H     -2.85612421     0.13560655     1.89314564
O     -1.48387072    -2.28108533     2.73903493
H     -1.39272618    -2.41822206     1.57817729
H     -0.47716508    -2.42535627     2.96406225
O      1.31117550    -2.49115109     2.71647716
H      1.89898578    -1.55431949     2.70034175
H      1.33454848    -2.53922727     1.80444169
36
water clusters ood_size frame=241
O      2.74910053    -0.07185843    -0.09382487
H      2.30649529     0.75513685     0.06827817
H      2.96739692    -0.16816120     0.85416505
O      1.42175181     2.49601025    -0.08022887
H      1.27637864     2.44147800     0.89834338
H      2.43204776     2.33488285    -0.34433993
O     -1.41681679     2.36440986    -0.09305713
H     -1.88447263     1.42561517    -0.16220343
H     -1.12379804     2.40701908     0.96938908
O     -2.86975580     0.09672509    -0.07078208
H     -2.69534125    -0.16747168     0.92814421
H     -1.88975354     0.13698270    -0.17219071
O     -1.54766535    -2.50981472    -0.06594787
H     -0.32964395    -2.38839018    -0.08243847
H     -1.48609082    -2.36448659     0.87007467
O      1.46901005    -2.46392839     0.06118957
H      1.42612584    -2.29064267     0.84163497
H      2.50354820    -2.31924615    -0.20013464
O      2.75068627    -0.05251373     2.80886998
H      2.80114550     0.09026430     1.75238432
H      3.74857787     0.07036737     2.79757918
O      1.36325011     2.33909721     2.62194641
H      0.33602944     2.32030546     2.67039471
H      1.59907239     2.16368256     1.88881165
O     -1.52765224     2.54081757     2.63804646
H     -1.34041303     2.17052991     1.90288739
H     -0.59758716     2.51535065     2.92871184
O     -3.01846977    -0.04032805     2.74250512
H     -2.22797166    -0.82752491     2.59104183
H     -2.81647103     0.21829498     1.81095653
O     -1.30501162    -2.37580965     2.65406519
H     -1.23515265    -2.52246365     1.87103942
H     -0.20528944    -2.35362674     2.86056586
O      1.45882282    -2.44539176     2.59911205
H      1.97079172    -1.65449456     2.62409681
H      1.31850021    -2.67027344     1.72109795
36
water clusters ood_size frame=242
O      2.79325034    -0.05724977    -0.06735916
H      2.33818628     0.89118714    -0.00074971
H      2.90609009    -0.21567462     0.95481645
O      1.44518547     2.38064931    -0.01996724
H      1.44792720     2.40410772     1.04878042
H      2.35789424     2.36464841    -0.18093075
O     -1.32852634     2.45692811     0.01197921
H     -1.91406261     1.55897341    -0.10777037
H     -1.30487657     2.61649519     0.96224850
O     -2.73482153     0.10576630     0.06224655
H     -2.65716936     0.03101627     0.93027254
H     -1.85631183    -0.02702267    -0.22238539
O     -1.36733103    -2.42399517    -0.02636191
H     -0.49585288    -2.32541343    -0.10204793
H     -1.55916101    -2.37808811     0.93055606
O      1.38246322    -2.47570677    -0.05563060
H      1.39004505    -2.35346480     0.90370491
H      2.32185983    -2.29116872    -0.14851593
O      2.79344090     0.06100625     2.69931825
H      2.71136690     0.04685155     1.78433153
H      3.67747581    -0.02054364     2.87775952
O      1.29062932     2.36515021     2.67865747
H      0.41656889     2.40797074     2.76765775
H      1.59534185     2.40071806     1.70851147
O     -1.27021684     2.33300183     2.70277979
H     -1.37098869     2.41413792     1.71704091
H     -0.41968452     2.30540740     2.96242690
O     -2.79725493    -0.07621790     2.67421843
H     -2.19659683    -0.82859622     2.63358165
H     -2.87108185     0.17263765     1.81396911
O     -1.46901974    -2.41910233     2.73972308
H     -1.37211903    -2.44333503     1.76338712
H     -0.48119941    -2.42702944     2.97809472
O      1.38650511    -2.32590757     2.72805734
H      1.88454219    -1.53448826     2.69883619
H      1.34650207    -2.55891323     1.77577239
36
water clusters ood_size frame=243
O      2.64807529    -0.09204630     0.03504955
H      2.27794354     0.87772725     0.02491391
H      2.79552866    -0.16986546     0.93236476
O      1.39816485     2.42828064     0.00952992
H      1.40026825     2.48868804     0.92520479
H      2.35079074     2.45876339    -0.22966208
O     -1.33251538     2.37838882     0.04247637
H     -1.74046364     1.57393400    -0.06292578
H     -1.09947935     2.53784629     0.88073363
O     -2.80234421     0.02309378    -0.04721486
H     -2.87243883     0.03094727     0.99985867
H     -1.72337522     0.03686101    -0.20333185
O     -1.36755371    -2.35747335    -0.00970364
H     -0.43174072    -2.30949109    -0.04641517
H     -1.53862252    -2.38790263     0.85901849
O      1.38291320    -2.40232339     0.04219911
H      1.49451277    -2.41441932     0.84828438
H      2.37745871    -2.34617931    -0.24102623
O      2.73056322     0.01286834     2.70843911
H      2.76683287     0.16155556     1.81287448
H      3.68790387     0.08045041     2.92719679
O      1.35811471     2.47919626     2.60770753
H      0.38766298     2.42515902     2.81029412
H      1.50417167     2.40165259     1.74689174
O     -1.38621463     2.45554997     2.72360527
H     -1.26272517     2.40080235     1.86305891
H     -0.33857406     2.46060774     2.93467064
O     -2.80604503     0.08497027     2.76267108
H     -2.22887403    -0.88782233     2.72202092
H     -2.82752123     0.24161302     1.69872057
O     -1.40879777    -2.37062718     2.71009396
H     -1.28503516    -2.41732085     1.88386136
H     -0.34899418    -2.41749758     2.89998998
O      1.28527758    -2.40346287     2.76584526
H      1.78189343    -1.48256591     2.66086794
H      1.26629711    -2.56602126     1.80814699
36
water clusters ood_size frame=244
O      2.68310773     0.07502781     0.05904826
H      2.22984443     0.86246971     0.01564593
H      2.70044454    -0.21888415     0.83351865
O      1.57988114     2.52229011     0.05834020
H      1.36263337     2.48342024     0.96351325
H      2.25427957     2.52289028    -0.39439867
O     -1.40802272     2.47010390     0.19355370
H     -1.80592900     1.52263977     0.04499975
H     -1.44678971     2.65204446     0.97996040
O     -2.62653970    -0.03704547     0.11711034
H     -2.83204851    -0.04576663     0.95457869
H     -1.74704076    -0.08515639    -0.19634080
O     -1.46684937    -2.43426438    -0.01576381
H     -0.41945257    -2.44700860     0.09443402
H     -1.70498844    -2.29673377     0.93816451
O      1.34369173    -2.40852796     0.01038952
H      1.31504447    -2.25611333     0.89034072
H      2.26580792    -2.32739129    -0.47071235
O      2.81375697     0.09217007     2.68694714
H      2.81502261     0.01803060     1.73271885
H      3.56322595    -0.04758887     2.91619055
O      1.28134332     2.52678550     2.73827946
H      0.37690583     2.48116743     2.75449824
H      1.65616751     2.42428165     1.87559163
O     -1.42943100     2.55683338     2.79543956
H     -1.33532653     2.45948332     1.84071963
H     -0.22183905     2.42402376     3.05180821
O     -2.82777756    -0.04676186     2.96699873
H     -2.22371818    -0.76261526     2.56414894
H     -2.87140925     0.10310037     1.77972424
O     -1.40901598    -2.56064987     2.72483709
H     -1.41823695    -2.42494887     1.88357271
H     -0.47153250    -2.34616878     2.90808061
O      1.35205075    -2.27197970     2.69396034
H      1.89183433    -1.64435325     2.74760446
H      1.27462305    -2.33077312     1.91959117
36
water clusters ood_size frame=245
O      2.70384411    -0.08479577     0.01315457
H      2.25635607     0.83362940     0.00336489
H      2.86846113    -0.20694399     0.88376756
O      1.33040444     2.51203153    -0.00260998
H      1.34471271     2.34951094     0.97777127
H      2.34375210     2.30921144    -0.20475819
O     -1.35746942     2.39260928    -0.00230881
H     -1.83693833     1.54338251     0.07421801
H     -1.23019032     2.56827032     1.04742941
O     -2.74512336    -0.08830126    -0.05086208
H     -2.81508576     0.02335175     0.92004473
H     -1.86191935     0.01714225    -0.26402444
O     -1.30862103    -2.35125416    -0.02098278
H     -0.43470056    -2.35171176     0.04142415
H     -1.63016045    -2.51887112     0.90017098
O      1.30115372    -2.36784348    -0.00068044
H      1.34067922    -2.39140713     0.98912328
H      2.24014382    -2.43956555    -0.27728728
O      2.75746005    -0.07295196     2.76071560
H      2.65818690     0.08430457     1.62164319
H      3.57571134    -0.06951535     2.93216116
O      1.34306343     2.42029850     2.68967380
H      0.40721137     2.45378606     2.72009018
H      1.69891317     2.43279016     1.86660896
O     -1.46433593     2.42697514     2.68407123
H     -1.40354613     2.36856580     1.73711875
H     -0.43577917     2.39163488     2.90203297
O     -2.65530845    -0.05249152     2.80081251
H     -2.24677006    -0.78415464     2.63273161
H     -2.96486196     0.27262521     1.69229512
O     -1.42204093    -2.37404925     2.83408531
H     -1.32561701    -2.42243668     1.73327481
H     -0.54035266    -2.35738853     2.96117412
O      1.35165405    -2.38386467     2.79454704
H      1.92630552    -1.57981457     2.74464178
H      1.28035438    -2.58143703     1.92221173
36
water clusters ood_size frame=246
O      2.87022847    -0.07236068     0.06435670
H      2.21383151     0.90035963    -0.05402865
H      2.94793022    -0.23010139     0.88720930
O      1.38902387     2.25697735    -0.08070192
H      1.37038248     2.35836254     0.98240780
H      2.29352150     2.38705307    -0.26049171
O     -1.30523905     2.34627355    -0.03959475
H     -1.81511002     1.60055436     0.06115089
H     -1.24777868     2.71546697     0.97007444
O     -2.76584756    -0.01091183    -0.04587722
H     -2.84807850    -0.00865248     0.93021713
H     -1.84988064    -0.06279344    -0.16982712
O     -1.49430626    -2.44783526     0.05124466
H     -0.44156959    -2.35984538     0.01518811
H     -1.61554762    -2.31502614     0.98929146
O      1.37977136    -2.29691226     0.13800190
H      1.30192087    -2.36727099     0.96043824
H      2.41389898    -2.35727599    -0.25945638
O      2.82899266     0.02575252     2.82730379
H      2.79954925     0.02144104     1.86908538
H      3.76886716     0.04143613     2.91297906
O      1.48988649     2.45111999     2.67449387
H      0.46725157     2.35587638     2.66232711
H      1.64173028     2.29750223     1.90464674
O     -1.45441730     2.37332229     2.75316494
H     -1.45087406     2.41973459     1.76170985
H     -0.43006026     2.50759231     3.04580468
O     -2.70012140     0.00329935     2.72971095
H     -2.19220499    -0.83436088     2.63653533
H     -2.96046334     0.34907544     1.78819239
O     -1.42872228    -2.30506057     2.73276920
H     -1.33413062    -2.48910584     1.76904211
H     -0.41668879    -2.34941153     2.97520413
O      1.38298493    -2.43680752     2.68277387
H      1.89625392    -1.63691648     2.63203910
H      1.17404357    -2.60869938     1.84732237
36
water clusters ood_size frame=247
O      2.79413618     0.06555260     0.01557088
H      2.28860073     0.77958694    -0.02208281
H      2.82322554    -0.30531623     0.87364257
O      1.39613756     2.53626750    -0.06467432
H      1.41984137     2.27082403     0.94085317
H      2.40214360     2.31819600    -0.26464744
O     -1.21453356     2.40021216    -0.14248463
H     -2.02774690     1.52050594    -0.07277262
H     -1.33565355     2.62381322     0.90458174
O     -2.83332736     0.10750710     0.00691383
H     -2.82592374    -0.05319538     0.86045953
H     -1.99413197    -0.05280955    -0.18692395
O     -1.40143383    -2.46766478    -0.04704477
H     -0.34844630    -2.27851872    -0.01065720
H     -1.49734296    -2.47387120     0.80762934
O      1.69335311    -2.41746417     0.11609524
H      1.35836164    -2.26480963     1.05129467
H      2.41423748    -2.63916900    -0.24917080
O      2.60056632    -0.03742040     2.74383863
H      2.70653798     0.17413631     1.79460677
H      3.68219447    -0.05215837     2.86173825
O      1.34569272     2.32140757     2.64171752
H      0.47510151     2.45982649     2.89183882
H      1.66250436     2.46137891     1.89287022
O     -1.49193290     2.48651138     2.63272888
H     -1.44031755     2.27212573     1.83861339
H     -0.49077417     2.22838770     2.92856727
O     -2.79738089     0.15517192     2.77114053
H     -2.14941175    -0.64940265     2.64274691
H     -2.96604524     0.12665659     1.68117461
O     -1.46180716    -2.42351226     2.63031981
H     -1.44504547    -2.35693662     1.66096995
H     -0.37920401    -2.30541738     2.88837380
O      1.46482850    -2.48006979     2.77008429
H      1.80168845    -1.64350604     2.72337999
H      1.32914074    -2.75569128     1.79088239
36
water clusters ood_size frame=248
O      2.72419880     0.04242791    -0.03705698
H      2.31397145     0.88198602    -0.03267326
H      2.92888278    -0.21353011     0.90036595
O      1.30374800     2.41132708     0.05242749
H      1.41132990     2.32288965     0.89125976
H      2.30988067     2.38312280    -0.25070814
O     -1.35414652     2.38618014     0.02129689
H     -1.84188209     1.53937324    -0.01484745
H     -1.33507251     2.67604514     0.91175735
O     -2.72131696    -0.13077966    -0.06814597
H     -2.76538698     0.02011089     0.91858785
H     -1.83526440     0.06322089    -0.32113236
O     -1.29962785    -2.43908656     0.02662592
H     -0.41006335    -2.42461275    -0.10262774
H     -1.70744529    -2.34647081     0.86936189
O      1.48884497    -2.42776522     0.14014574
H      1.40858777    -2.39329172     0.90546272
H      2.26885759    -2.33994178    -0.20285649
O      2.72450370     0.02739948     2.78355677
H      2.65046706    -0.06863705     1.75586938
H      3.64404811     0.07616130     2.98063361
O      1.38385388     2.39845410     2.71111728
H      0.38446387     2.35024174     2.69154851
H      1.64821235     2.33275616     1.89922216
O     -1.46265960     2.33367688     2.76050823
H     -1.36872770     2.43998641     1.75772457
H     -0.45076725     2.36858419     3.00781439
O     -2.64642427     0.02308919     2.68415300
H     -2.31259075    -0.84481493     2.69912099
H     -2.89460204     0.20186150     1.76375823
O     -1.44614123    -2.32967336     2.78107161
H     -1.37063542    -2.35273952     1.79918014
H     -0.46255389    -2.50967508     2.89331776
O      1.39855996    -2.41429688     2.67484263
H      1.84119466    -1.51817459     2.71592786
H      1.22137874    -2.66242352     1.82617603
36
water clusters ood_size frame=249
O      2.74592713     0.04794230    -0.03717430
H      2.18172513     0.75298891    -0.03379456
H      2.92858654    -0.24277103     0.90230076
O      1.35725781     2.38166757    -0.11246713
H      1.38435049     2.42148510     1.03432606
H      2.42141910     2.33480836    -0.25102208
O     -1.38529285     2.31057609     0.12093027
H     -1.87076311     1.56313445     0.03156896
H     -1.29867443     2.67052184     0.96058125
O     -2.67822566    -0.10028622    -0.03321282
H     -2.74276377    -0.05762083     0.99001789
H     -1.80830183    -0.00005325    -0.21401852
O     -1.44477618    -2.38361394     0.03910850
H     -0.48044182    -2.42567666     0.10302988
H     -1.63268319    -2.38065016     0.83630208
O      1.41845379    -2.39239834    -0.11309277
H      1.28513344    -2.37660338     0.95026109
H      2.37890960    -2.32468305    -0.24389849
O      2.76295622     0.05922779     2.71455689
H      2.67436190    -0.00056683     1.81646817
H      3.69415075     0.08045627     2.93891425
O      1.36654699     2.33467234     2.78750733
H      0.39344297     2.36105580     2.61679223
H      1.71685120     2.27965088     1.75307489
O     -1.38935233     2.37489920     2.69833327
H     -1.47146718     2.39081497     1.71484211
H     -0.46983236     2.51317459     2.95767632
O     -2.77730134     0.02340992     2.72201771
H     -2.32778657    -0.95578911     2.71942207
H     -2.86482366     0.21106965     1.70054402
O     -1.35701229    -2.35572215     2.52125449
H     -1.36404129    -2.35559843     1.73268653
H     -0.39046930    -2.41894934     2.98711227
O      1.29921506    -2.29225517     2.64975938
H      1.67539016    -1.57899805     2.64355290
H      1.30135676    -2.61105540     1.77017031
36
water clusters ood_size frame=250
O      2.74113356    -0.07175746     0.08965902
H      2.35331309     0.71928646     0.01107218
H      2.68425847    -0.06467181     1.04106058
O      1.53641781     2.43861637     0.07082016
H      1.19684391     2.19519249     0.90935783
H      2.39000361     2.22001017    -0.19378377
O     -1.21983675     2.50267440     0.00411143
H     -1.96485394     1.63602464     0.05374396
H     -1.38989629     2.62855628     0.75143344
O     -2.75954831     0.25503633     0.02327974
H     -2.82409478    -0.10378472     0.82927748
H     -1.84993519     0.11279846    -0.14840091
O     -1.32938952    -2.36236030     0.03096938
H     -0.33509321    -2.48043654    -0.04989398
H     -1.72053760    -2.40789371     1.09310860
O      1.53053826    -2.30871392     0.12899447
H      1.30467157    -2.56517262     1.07942835
H      2.30273719    -2.36120771    -0.31794811
O      2.80389959    -0.11396383     2.81006093
H      2.79303588    -0.11109715     1.83165559
H      3.78001665    -0.13849888     2.84261046
O      1.28802280     2.40145165     2.87947761
H      0.48122513     2.38978284     2.61559499
H      1.40885568     2.41750976     1.84337962
O     -1.49887451     2.39620269     2.70168438
H     -1.59032179     2.32451063     1.56413024
H     -0.44632500     2.49084168     2.98437618
O     -2.78540695     0.03304722     2.78228151
H     -2.08041379    -0.89423668     2.79665091
H     -2.91828298     0.18893727     1.91143899
O     -1.39113765    -2.45677021     2.79571116
H     -1.56395745    -2.33044810     1.66217894
H     -0.51129209    -2.45640825     2.96648918
O      1.20637485    -2.35257095     2.55010291
H      1.74709119    -1.60122372     2.98387915
H      1.35410280    -2.61448689     1.78650143
36
water clusters ood_size frame=251
O      2.69823637    -0.02470551     0.01893880
H      2.34305562     0.81428197    -0.06699411
H      2.92892413    -0.20285603     0.92209437
O      1.39404173     2.30785973     0.03871004
H      1.38950462     2.33069446     0.90425599
H      2.30626080     2.41857479    -0.24309083
O     -1.36880302     2.27077582    -0.04876896
H     -1.85156002     1.58034726     0.01933193
H     -1.17705437     2.56728421     0.89809356
O     -2.72941488     0.01346977     0.00147370
H     -2.73184168    -0.04815253     0.92860029
H     -1.85157328    -0.01351412    -0.33310539
O     -1.31689772    -2.39021179    -0.05670945
H     -0.44766752    -2.37748040    -0.00425343
H     -1.68701741    -2.46176289     0.89309611
O      1.30713121    -2.36829184    -0.04761217
H      1.45005710    -2.37722946     0.96553340
H      2.23298790    -2.35995008    -0.24660098
O      2.74679731    -0.04451621     2.68552357
H      2.77006009     0.03128488     1.80781749
H      3.67977106    -0.00134922     2.92796395
O      1.43721750     2.36635050     2.65984274
H      0.36456582     2.46303740     2.70308767
H      1.54691236     2.43145968     1.74931626
O     -1.41197145     2.40042004     2.72398351
H     -1.47412584     2.40761776     1.67617933
H     -0.46308688     2.37106463     3.01023753
O     -2.79582855     0.05409519     2.69664440
H     -2.29728137    -0.83995603     2.70657156
H     -2.96990815     0.16713204     1.82013692
O     -1.29492808    -2.29701604     2.75246246
H     -1.46287781    -2.46452663     1.70966081
H     -0.46026729    -2.32887291     2.98402688
O      1.36788154    -2.39552897     2.70635506
H      1.87263451    -1.55173582     2.67166553
H      1.26812672    -2.63584361     1.78285974
36
water clusters ood_size frame=252
O      2.76462230    -0.06065164     0.06652523
H      2.30203457     0.83569524    -0.05498792
H      2.80860083    -0.17350756     0.96220812
O      1.38194921     2.35535576    -0.18261894
H      1.29329304     2.39446034     0.95699658
H      2.34216832     2.38735361    -0.19686089
O     -1.42395400     2.43527885    -0.00071170
H     -1.81127521     1.51641487     0.03421517
H     -1.20346490     2.65605235     0.87259910
O     -2.85916443     0.12372089     0.07447188
H     -2.75582275     0.02936368     1.01126209
H     -1.80788962    -0.00919492    -0.27348533
O     -1.42135315    -2.48635430    -0.07538826
H     -0.45698232    -2.39949013    -0.08005986
H     -1.64884224    -2.27654556     0.90273909
O      1.44370144    -2.50891613     0.05133261
H      1.46491534    -2.41627163     0.89021245
H      2.30099144    -2.30044302    -0.28799567
O      2.69359841     0.11461427     2.81152687
H      2.80104528    -0.03779701     1.83347873
H      3.70866658    -0.07263169     3.00989272
O      1.29744522     2.32407687     2.88717874
H      0.51426623     2.45759247     2.61947402
H      1.60346262     2.33242044     1.71852153
O     -1.44997785     2.26976071     2.67073494
H     -1.39788584     2.39357955     1.79432593
H     -0.38744733     2.29059010     2.95079776
O     -2.81911019    -0.00583191     2.71039073
H     -2.14433740    -0.89542466     2.64717209
H     -2.90843388     0.20739904     1.83676291
O     -1.42413523    -2.40510729     2.72013502
H     -1.36113485    -2.21677649     1.87277325
H     -0.50661009    -2.40549407     3.01543365
O      1.24531873    -2.37972379     2.57575887
H      1.78643965    -1.59158644     2.79454126
H      1.21799695    -2.57152319     1.80405521
36
water clusters ood_size frame=253
O      2.76214491    -0.11189513     0.11452294
H      2.37181149     0.85682237     0.11107412
H      2.81484708    -0.15635553     0.90761413
O      1.34553016     2.27434583    -0.22017198
H      1.38624943     2.49358559     0.98664297
H      2.22968369     2.31120657    -0.24483409
O     -1.39523381     2.34983318    -0.02379921
H     -1.74103441     1.49202434     0.17467927
H     -1.19027329     2.62319579     0.98964904
O     -2.87374947    -0.17725897     0.01877851
H     -2.80189608    -0.12717985     1.12644080
H     -1.96979300    -0.14558934    -0.42500885
O     -1.39167398    -2.45709264    -0.10634970
H     -0.39106285    -2.37339434     0.06152016
H     -1.70083496    -2.46055986     0.67040822
O      1.30519002    -2.25274401    -0.14351744
H      1.12823223    -2.45762573     0.88891541
H      2.25423124    -2.24399809    -0.13122926
O      2.70329222    -0.02070245     2.65361587
H      2.65509339     0.08319825     1.73953269
H      3.74715604     0.11559002     3.10690642
O      1.60246618     2.53772502     2.53349983
H      0.50667568     2.34813840     2.79985121
H      1.52462199     2.40348498     1.69775201
O     -1.48114923     2.33789681     2.82431856
H     -1.49524876     2.36849044     1.66986862
H     -0.35575753     2.38930834     3.10183607
O     -2.82516919    -0.05050772     2.72822560
H     -2.29223064    -0.77220315     2.77279613
H     -2.68833079     0.21963670     1.73017156
O     -1.50190982    -2.36886525     2.59669128
H     -1.27029304    -2.28539593     1.65965055
H     -0.51321534    -2.22499204     2.93757344
O      1.40434547    -2.24550426     2.84404393
H      1.92803993    -1.60977190     2.75151459
H      1.15711268    -2.47739989     1.82712133
36
water clusters ood_size frame=254
O      2.75441656     0.03093146     0.01679119
H      2.26939255     0.78019783    -0.00540565
H      2.77112004    -0.13941984     1.00607405
O      1.46508769     2.33423735    -0.00247748
H      1.38231353     2.38822353     0.98700526
H      2.32177598     2.38032519    -0.11881697
O     -1.39964963     2.45668459     0.06116325
H     -1.76839722     1.55846225     0.00898703
H     -1.30553882     2.68927672     0.94972537
O     -2.68432749    -0.00450666    -0.04987005
H     -2.82752520    -0.04125860     0.92096881
H     -1.85298815     0.04375834    -0.26850783
O     -1.39065821    -2.33007225     0.00359738
H     -0.45421303    -2.33025655    -0.09393824
H     -1.64338737    -2.34552617     0.93566358
O      1.37941549    -2.42118826     0.00962298
H      1.33579817    -2.29776210     0.91228479
H      2.33036898    -2.45180567    -0.28892147
O      2.74452451     0.00805859     2.69601690
H      2.71014817    -0.03545398     1.74836404
H      3.65411757     0.00280419     2.89611558
O      1.41029138     2.42361273     2.79540141
H      0.46483597     2.38732241     2.73284601
H      1.65490492     2.32847099     1.79979834
O     -1.41823169     2.25539487     2.74166953
H     -1.37928481     2.37930551     1.80504761
H     -0.47631481     2.38803630     3.01238991
O     -2.76671180    -0.01792952     2.72552231
H     -2.32352046    -0.87092283     2.77923902
H     -2.85942046     0.24418892     1.84139569
O     -1.28845365    -2.30579267     2.66037238
H     -1.46589696    -2.34488930     1.79509351
H     -0.33663892    -2.43545921     2.89187968
O      1.39007607    -2.37418369     2.74885385
H      1.80840800    -1.52086430     2.74370280
H      1.28126913    -2.61045425     1.83278601
36
water clusters ood_size frame=255
O      2.76440886    -0.02125657     0.02862554
H      2.20125616     0.83248016    -0.00251139
H      2.88281455    -0.20035004     0.93330955
O      1.25112513     2.42467004     0.07532526
H      1.30316061     2.37825962     0.95217789
H      2.36710997     2.33172479    -0.27893837
O     -1.26966476     2.32322987    -0.06588986
H     -1.84679127     1.46994115    -0.06991724
H     -1.26017650     2.61468168     0.98932230
O     -2.75697587     0.08717850     0.00607933
H     -2.80846971    -0.00569859     0.99045780
H     -1.80667085     0.06696526    -0.28767779
O     -1.31712929    -2.42221565    -0.17670251
H     -0.36314643    -2.35398562     0.07110729
H     -1.66132047    -2.46171670     0.76429968
O      1.32269166    -2.44316921     0.04200935
H      1.28779454    -2.42363134     0.85589212
H      2.29481028    -2.46444922    -0.26448622
O      2.77016542     0.02544496     2.66513317
H      2.77659030    -0.07862386     1.87378501
H      3.73826318    -0.10662008     3.04960297
O      1.28094657     2.41375079     2.71360449
H      0.49075613     2.53209773     2.72203954
H      1.57476550     2.49998060     1.73650047
O     -1.43368377     2.40160675     2.77869785
H     -1.40390487     2.35875654     1.74595456
H     -0.40624705     2.24562193     2.99214890
O     -2.81433681     0.00031768     2.76771071
H     -2.28803949    -0.88308100     2.77456406
H     -2.88726003     0.31322434     1.81003728
O     -1.39448752    -2.58251655     2.64399072
H     -1.42630527    -2.36984278     1.75427028
H     -0.53231273    -2.36883419     3.00555256
O      1.23562480    -2.38011726     2.66190700
H      1.75978481    -1.52953765     2.69330701
H      1.31960287    -2.59475203     1.88109905
36
water clusters ood_size frame=256
O      2.54871630     0.00535167     0.00161540
H      2.05610778     0.81451145     0.01110410
H      2.85453973    -0.22567761     0.94266423
O      1.28369276     2.35643235    -0.02449782
H      1.26660268     2.64407155     0.89020651
H      2.40351168     2.35661658    -0.25974911
O     -1.46701713     2.49093642    -0.13735669
H     -1.96500256     1.69776665    -0.11798645
H     -1.10652322     2.58544949     0.80769503
O     -2.78652530     0.02287541     0.05589625
H     -2.71247442     0.01779438     0.99453156
H     -1.74460955    -0.12284376    -0.15240797
O     -1.43926347    -2.38187512     0.15725390
H     -0.55833758    -2.32972721    -0.04372041
H     -1.48645766    -2.49213036     1.09691697
O      1.40745269    -2.52871233    -0.02589378
H      1.36975379    -2.60360824     0.95250432
H      2.13615787    -2.41700919    -0.32242369
O      2.73400029    -0.03997236     2.67015662
H      2.82549287     0.13618841     1.87929076
H      3.64779518    -0.11904721     2.99221570
O      1.33864149     2.38761415     2.62480469
H      0.53570007     2.40533545     2.82122856
H      1.63020353     2.39039114     1.70526054
O     -1.31037742     2.37663023     2.85257263
H     -1.29923347     2.29618964     1.70879607
H     -0.52430146     2.32259418     2.99144274
O     -2.77001216     0.09366435     2.60042114
H     -2.33056761    -0.82662458     2.82929578
H     -2.86129671     0.18714650     1.83151352
O     -1.40889015    -2.34523095     2.73167837
H     -1.32060490    -2.51894168     1.85192242
H     -0.60046475    -2.21104314     2.87925168
O      1.43783173    -2.49004790     2.85309792
H      1.78375918    -1.64330878     2.76508959
H      1.36554464    -2.57338184     1.67048543
36
water clusters ood_size frame=257
O      2.81761065     0.06377483    -0.05933822
H      2.32623304     0.82313002    -0.06591895
H      2.85939782    -0.15583417     0.91923302
O      1.35164622     2.33301843    -0.05709923
H      1.41659176     2.39159058     0.88672673
H      2.29869953     2.46473909    -0.33406791
O     -1.40308589     2.37977537     0.01549052
H     -1.79584828     1.49888022    -0.01353726
H     -1.29424141     2.64334795     0.96334783
O     -2.69480590     0.01565906     0.01600546
H     -2.76905179    -0.07947590     1.00088909
H     -1.86079651    -0.10865835    -0.27589967
O     -1.37948775    -2.38817773     0.01379227
H     -0.40119828    -2.39634662     0.02563737
H     -1.73322083    -2.27957130     0.90282918
O      1.38018622    -2.46240848    -0.00408758
H      1.27958040    -2.41422915     0.95928725
H      2.43324708    -2.38229566    -0.24564101
O      2.70432049    -0.03239395     2.69996425
H      2.69187974    -0.05383486     1.70818688
H      3.69478033    -0.07292561     2.94336435
O      1.44044561     2.39562468     2.72529199
H      0.37004108     2.54692262     2.75273426
H      1.51834053     2.42354342     1.81981295
O     -1.30380728     2.36767652     2.74474203
H     -1.38335309     2.31175833     1.78335711
H     -0.40673727     2.34120741     2.88953249
O     -2.87138092    -0.00820363     2.73882783
H     -2.28192841    -0.80083283     2.71545609
H     -2.79591487     0.20631048     1.88898148
O     -1.42794347    -2.39743100     2.68174318
H     -1.43077433    -2.49334813     1.82133800
H     -0.43025401    -2.42248436     2.93484802
O      1.40088015    -2.31960053     2.78359084
H      1.93956015    -1.54076405     2.63758278
H      1.24986205    -2.66497191     1.81665289
36
water clusters ood_size frame=258
O      2.87608480    -0.04215648    -0.06271301
H      2.26516302     0.75713442    -0.02383731
H      2.89167081    -0.21296220     1.03344219
O      1.46518009     2.50796952    -0.03366872
H      1.30803186     2.50351567     0.91789720
H      2.36648523     2.46017928    -0.27348901
O     -1.42471258     2.19645178    -0.06969201
H     -1.88632059     1.56842371     0.00799260
H     -1.24357936     2.64146363     0.97542891
O     -2.74054493    -0.07725024    -0.01396974
H     -2.84959136    -0.05956847     0.97418843
H     -1.69671306    -0.07406081    -0.31567675
O     -1.33185748    -2.39740451     0.02036903
H     -0.39641256    -2.39773954    -0.02676391
H     -1.71198794    -2.45380112     0.96846964
O      1.35595615    -2.41503949     0.11159285
H      1.26957940    -2.30576912     1.01047028
H      2.21545782    -2.28621081    -0.21249006
O      2.78287210    -0.02720259     2.71239964
H      2.72280711     0.04652367     1.82109885
H      3.67609107    -0.01055948     2.98228645
O      1.37535430     2.41551924     2.65555611
H      0.33926261     2.39225944     2.67408736
H      1.65194124     2.53486939     1.88608464
O     -1.36008483     2.45305911     2.81387593
H     -1.38887531     2.32466335     1.90755424
H     -0.40742875     2.47986513     3.05463708
O     -2.72412990     0.04013434     2.67908595
H     -2.33010483    -0.84887060     2.67389049
H     -2.91249561     0.29717873     1.81948930
O     -1.36453735    -2.35097539     2.81188558
H     -1.36054864    -2.39567460     1.70560078
H     -0.48334133    -2.43845923     3.01513023
O      1.34406392    -2.22912351     2.57088505
H      1.89322352    -1.50155918     2.74209375
H      1.31105786    -2.67337651     1.69990491
36
water clusters ood_size frame=259
O      2.98361141     0.05681878     0.03676293
H      2.35902515     0.76239750     0.04652707
H      2.70364330    -0.12415697     0.98829807
O      1.58861515     2.43953782    -0.03881315
H      1.52457650     2.30330534     0.98467124
H      2.35423780     2.34082576    -0.36695079
O     -1.49871336     2.38110595     0.09135462
H     -1.76264839     1.44940242     0.10307847
H     -1.24407417     2.65121338     0.82464255
O     -2.83685332     0.00567779    -0.00164099
H     -2.64346964    -0.08491293     0.90737527
H     -1.76146870    -0.03432581    -0.30174560
O     -1.33015081    -2.36123943    -0.12985580
H     -0.37826128    -2.28547616     0.03577527
H     -1.69633744    -2.40427154     0.91610990
O      1.29260615    -2.43020482    -0.15197407
H      1.21880091    -2.37838403     0.97210080
H      2.35178381    -2.33314234    -0.30242803
O      2.58928521    -0.07357432     2.91580076
H      2.70232036    -0.04401876     1.75168810
H      3.60515161     0.16774464     2.83809836
O      1.33009229     2.50751108     2.59668683
H      0.45046042     2.29884521     2.68527702
H      1.51877500     2.48852470     1.79673764
O     -1.44462089     2.40737123     2.64411266
H     -1.38095424     2.63283516     1.79894620
H     -0.62407965     2.40457779     2.95508452
O     -2.51811888     0.02773727     2.66147176
H     -2.35970905    -0.91108496     2.79410919
H     -2.83212115     0.38797319     1.79966044
O     -1.43609410    -2.35211449     2.72361491
H     -1.17281047    -2.16340618     1.70400721
H     -0.45159775    -2.40097011     2.93394597
O      1.37061260    -2.32655390     2.58354815
H      1.92195819    -1.48962354     2.62472185
H      1.17547410    -2.74444993     1.81094040
36
water clusters ood_size frame=260
O      2.82834666    -0.01238857    -0.00732396
H      2.29868793     0.84661575     0.00297647
H      2.78782293    -0.21866010     0.97813252
O      1.31261611     2.39634018     0.03076845
H      1.32435197     2.42045630     1.05483877
H      2.33322400     2.39458213    -0.20099453
O     -1.34732143     2.39346413    -0.00927802
H     -1.92185460     1.53146716    -0.00642909
H     -1.24613433     2.65608398     0.95782973
O     -2.75740060     0.05004742     0.06445742
H     -2.70892003    -0.00373686     1.03504104
H     -1.78698996     0.01538841    -0.24346120
O     -1.39232258    -2.39093810    -0.04687733
H     -0.33958054    -2.35938452     0.01004879
H     -1.66161090    -2.41870570     0.93975951
O      1.40628043    -2.41994333     0.03098549
H      1.36165311    -2.44851525     1.01814973
H      2.33529665    -2.40234484    -0.21527737
O      2.72989162    -0.02122309     2.75545839
H      2.82847609     0.06698363     1.69923690
H      3.65575810    -0.04944637     2.87836740
O      1.45215631     2.36947613     2.74222270
H      0.43009603     2.37615126     2.66038376
H      1.65474117     2.33110829     1.73081023
O     -1.39643921     2.44887751     2.66453551
H     -1.37929679     2.34833163     1.75817177
H     -0.50575128     2.40916626     3.00790374
O     -2.76901507    -0.02512815     2.71304826
H     -2.27830194    -0.81795653     2.74744119
H     -2.87299299     0.23669147     1.77818028
O     -1.38490911    -2.45010055     2.81579021
H     -1.24801321    -2.42782087     1.79629809
H     -0.55770657    -2.44095864     2.93709504
O      1.49229547    -2.36192799     2.73842765
H      1.84375710    -1.56733979     2.72854069
H      1.35939368    -2.68045794     1.74260893
36
water clusters ood_size frame=261
O      2.83859793     0.03446180     0.00018688
H      2.37894103     0.94526640     0.01219955
H      2.90103915    -0.09025701     1.02372536
O      1.41583561     2.37632743     0.07089743
H      1.34711238     2.45356124     1.09520651
H      2.35717656     2.51037209    -0.15093068
O     -1.35772909     2.41596455     0.00490213
H     -1.87813538     1.58289700    -0.07333854
H     -1.26217814     2.68336391     0.81130817
O     -2.81005828    -0.02153881    -0.03571501
H     -2.80173082     0.03939198     1.06374810
H     -1.81004022    -0.06503961    -0.15760733
O     -1.52901803    -2.44853138     0.12008797
H     -0.35921129    -2.33379201    -0.01562317
H     -1.56735554    -2.42118712     0.95721953
O      1.35956971    -2.44468979     0.05907438
H      1.32756255    -2.43728498     0.99970139
H      2.23762409    -2.36788960    -0.23867125
O      2.74355435     0.08709523     2.86279118
H      2.75059964    -0.02718846     1.87037044
H      3.76556376     0.06306695     3.05910006
O      1.35185059     2.49697261     2.70485065
H      0.34613800     2.42107679     2.83218547
H      1.44014616     2.24198899     1.77310356
O     -1.33586528     2.28516824     2.66439910
H     -1.36294428     2.47082867     1.65010680
H     -0.42098977     2.32432142     2.95749493
O     -2.72454235     0.09084208     2.65753556
H     -2.27180658    -0.91828029     2.61930588
H     -2.94767564     0.19143922     1.83224996
O     -1.40596505    -2.38558346     2.88190870
H     -1.31495641    -2.37714102     1.81039740
H     -0.29341205    -2.45611494     2.91466930
O      1.34558995    -2.45204356     2.78958073
H      1.81697031    -1.61650005     2.70250418
H      1.31366125    -2.52474727     1.73985867
36
water clusters ood_size frame=262
O      2.71652716     0.09092676    -0.08712074
H      2.17820236     0.87915930     0.01329728
H      2.91756562    -0.23270288     0.80600763
O      1.31162807     2.60381045     0.10070746
H      1.46025897     2.33543920     0.86241008
H      2.19632099     2.29038408    -0.17469567
O     -1.11383424     2.28322073     0.05997051
H     -1.92577946     1.52006730    -0.33818869
H     -1.16294447     2.50197322     0.93504699
O     -2.75406245     0.12648936     0.02237266
H     -2.65995158     0.03815833     1.03271629
H     -1.76570080     0.05487052    -0.01936651
O     -1.22142950    -2.42483665     0.04994134
H     -0.35089097    -2.22897024    -0.21215429
H     -1.58527372    -2.48407527     1.04461034
O      1.56075608    -2.30838436    -0.15229775
H      1.33106531    -2.39620439     1.04477361
H      2.29704496    -2.41022909    -0.32745877
O      2.86028517    -0.19621303     2.74843780
H      2.67473728     0.08012735     1.54761510
H      3.69618278    -0.03854122     3.10569083
O      1.53829677     2.63193612     2.65825407
H      0.41791434     2.42146972     2.50457224
H      1.61812836     2.32925771     1.59631919
O     -1.46519948     2.33097033     2.84004207
H     -1.30628821     2.44372293     1.79003804
H     -0.36955841     2.50252123     2.93722283
O     -2.65647001     0.10734912     2.74335830
H     -2.25243566    -0.84048504     2.73531832
H     -2.87422954     0.14498188     1.81875801
O     -1.35725168    -2.47413094     2.75055435
H     -1.40561827    -2.55042907     1.78313188
H     -0.26049948    -2.35698956     2.87895505
O      1.37148031    -2.35985415     2.78878362
H      1.83882494    -1.52055827     2.54869784
H      1.13977954    -2.64621318     1.75978023
36
water clusters ood_size frame=263
O      2.75759900     0.00339346    -0.06718601
H      2.22377468     0.84855862    -0.08887240
H      2.83343775    -0.18696832     0.93949051
O      1.29679073     2.28510991    -0.03598216
H      1.36424299     2.37948034     1.04664248
H      2.31937735     2.40316071    -0.24070005
O     -1.42456418     2.45875032    -0.03966485
H     -1.93107043     1.52938783    -0.03020838
H     -1.20981477     2.60753633     0.96403996
O     -2.75642301     0.03175548    -0.02763985
H     -2.76624861    -0.06122906     0.96364908
H     -1.84708937     0.05292018    -0.09512437
O     -1.38009450    -2.38343463     0.07993989
H     -0.45493758    -2.25560188    -0.01594177
H     -1.59866753    -2.31785139     0.93215624
O      1.36506268    -2.32710431    -0.00460168
H      1.34166391    -2.44369320     0.87925626
H      2.37030125    -2.40708664    -0.23752903
O      2.77996745    -0.01484186     2.70460837
H      2.72395234     0.09494089     1.71924472
H      3.70473621    -0.02982368     2.84181132
O      1.44508044     2.40961306     2.75326006
H      0.55634918     2.40404678     2.69902400
H      1.57992757     2.48386738     1.84089389
O     -1.45044349     2.38531399     2.82992087
H     -1.38752312     2.42385160     1.72650250
H     -0.47170441     2.41079519     2.93297786
O     -2.77790929     0.01287292     2.70790592
H     -2.32267868    -0.87499275     2.65799776
H     -2.85347605     0.19858762     1.74974721
O     -1.41323394    -2.34955766     2.74313282
H     -1.32354511    -2.44077946     1.70850579
H     -0.54562113    -2.49473241     2.93945857
O      1.32274874    -2.40276537     2.69940821
H      1.81717496    -1.56091688     2.70901221
H      1.32699429    -2.59335355     1.89594134
36
water clusters ood_size frame=264
O      2.70882458     0.07930308    -0.07382676
H      2.35208585     0.90405954    -0.02668106
H      2.69502805    -0.22539333     0.91605682
O      1.39218202     2.38747629     0.12745387
H      1.35387415     2.39027873     0.93691914
H      2.30999817     2.43186367    -0.30826658
O     -1.32475056     2.37603878    -0.03987781
H     -1.90338605     1.52930356     0.08146620
H     -1.29634553     2.54519102     0.86136633
O     -2.73053086    -0.02010905     0.11799456
H     -2.71732964     0.07870695     0.92048254
H     -1.90974616    -0.03183235    -0.23763595
O     -1.31688296    -2.43167643     0.00657602
H     -0.27964052    -2.36040624     0.08606269
H     -1.62993241    -2.40524416     0.92914122
O      1.37062334    -2.38517695    -0.03628017
H      1.34393113    -2.43425091     0.98949546
H      2.25347307    -2.30109502    -0.30969769
O      2.73947860     0.06779350     2.74747808
H      2.84217010    -0.07851698     1.73994876
H      3.67913145    -0.16899047     2.95908956
O      1.34854952     2.38522999     2.70319781
H      0.53251990     2.33117349     2.72918142
H      1.67250249     2.40186933     1.78161327
O     -1.37263573     2.45163555     2.75365963
H     -1.44526023     2.27703972     1.75048259
H     -0.50349025     2.33064311     2.82748399
O     -2.75657886     0.07731656     2.76061968
H     -2.32237564    -0.90986498     2.76531040
H     -2.82812289     0.23961726     1.80987200
O     -1.41117111    -2.30310816     2.63584944
H     -1.27114742    -2.34153920     1.78566266
H     -0.30553799    -2.44580196     2.95648799
O      1.42528923    -2.34070400     2.76735919
H      1.74033585    -1.63274516     2.70547481
H      1.29427157    -2.62775519     1.72929362
36
water clusters ood_size frame=265
O      2.86011940     0.06891447     0.05779838
H      2.29683564     0.91605964    -0.00930980
H      2.80655541    -0.22297388     0.90020902
O      1.28818608     2.42935651     0.01914216
H      1.39910012     2.42908801     0.98719782
H      2.41301349     2.36603744    -0.20866812
O     -1.33769179     2.36738616    -0.00542121
H     -1.95773674     1.71804180    -0.05746292
H     -1.25277535     2.67103151     1.06649286
O     -2.80490389     0.15988218    -0.03573453
H     -2.84806755     0.19283201     0.77405996
H     -1.73639016    -0.15465097     0.00383096
O     -1.43077697    -2.20990056    -0.09724153
H     -0.51061120    -2.32724900    -0.18207253
H     -1.62258277    -2.22474809     0.89893573
O      1.35614567    -2.52421654     0.03121044
H      1.43234509    -2.23390333     1.03726256
H      2.24085865    -2.39579591    -0.39643821
O      2.75224740    -0.16299899     2.89645531
H      2.90175146    -0.08699182     1.81382086
H      3.81311224    -0.07816266     2.87576044
O      1.43721061     2.38281316     2.83414235
H      0.60352170     2.40132477     2.68136775
H      1.61280696     2.47132397     1.64608323
O     -1.30799675     2.36753119     2.78999631
H     -1.42198160     2.26065657     1.66294287
H     -0.47852682     2.33925673     3.17266304
O     -2.66768624     0.16847571     2.62548234
H     -2.06912938    -0.75554154     2.58457378
H     -3.03950160     0.30111131     1.93940050
O     -1.35569057    -2.50463219     2.63790329
H     -1.33717908    -2.39244859     1.66149664
H     -0.55230631    -2.37336851     2.78825843
O      1.30957138    -2.40643554     2.62212609
H      1.94825308    -1.51225787     2.77367547
H      1.27490938    -2.45722456     1.80216040
36
water clusters ood_size frame=266
O      2.79046735     0.01683924     0.02297239
H      2.25492486     0.83413058    -0.00782732
H      3.00426938    -0.18657227     0.90546860
O      1.38078305     2.23792693    -0.09019520
H      1.41818772     2.35148705     0.94142221
H      2.32298493     2.38834567    -0.21205588
O     -1.34358308     2.48456693     0.05276537
H     -1.90413489     1.58371025     0.00545924
H     -1.27794888     2.60216287     0.93333914
O     -2.73747341     0.06828656     0.01492855
H     -2.74587924     0.02628900     0.92852446
H     -1.78217154     0.00782660    -0.31163495
O     -1.35189669    -2.38052675    -0.08292853
H     -0.35998979    -2.41730258     0.06024292
H     -1.67058496    -2.35405829     1.00578706
O      1.29441698    -2.45708712     0.03009635
H      1.42297367    -2.32846295     0.93872254
H      2.32523496    -2.38730747    -0.23158358
O      2.79222106     0.05483935     2.76638341
H      2.69979194     0.08377803     1.68356935
H      3.66764226    -0.08099598     2.93883269
O      1.35451719     2.30865449     2.67757551
H      0.37972413     2.51671516     2.63599090
H      1.57432906     2.34426700     1.73811363
O     -1.39972697     2.40971393     2.73313656
H     -1.37700746     2.41528078     1.79496108
H     -0.47686468     2.42634318     2.93812354
O     -2.77853669    -0.07706772     2.66105153
H     -2.39308716    -0.79473947     2.77869622
H     -2.92373135     0.10796000     1.82166891
O     -1.32361588    -2.42008963     2.68881842
H     -1.42564565    -2.34232293     1.73405721
H     -0.45750494    -2.43143712     3.01949244
O      1.36492232    -2.40457690     2.70778946
H      1.97674008    -1.67546200     2.76585130
H      1.18796472    -2.57957697     1.68655181
36
water clusters ood_size frame=267
O      2.70489318     0.05971787    -0.01616515
H      2.25069241     1.01744470    -0.09933350
H      2.81062384    -0.23421658     1.04667995
O      1.39476032     2.37993203    -0.10971934
H      1.44411998     2.35415038     1.05237754
H      2.38631251     2.30412505    -0.29872849
O     -1.45911278     2.35874517     0.02476732
H     -1.85356349     1.54784192    -0.01136653
H     -1.23922981     2.58147306     0.89228135
O     -2.69077762     0.01564173     0.05616575
H     -2.72170699    -0.02328391     0.97373508
H     -1.84123318     0.04606933    -0.25671075
O     -1.45267938    -2.39190568    -0.06753498
H     -0.40641412    -2.35706221    -0.05412446
H     -1.55680666    -2.43398979     0.84856997
O      1.31842273    -2.41896330    -0.04806661
H      1.44819975    -2.45326452     0.93517255
H      2.41667761    -2.34132761    -0.33206342
O      2.85567296     0.06388403     2.63160372
H      2.71388438    -0.07018403     1.82251808
H      3.63337329    -0.04943730     3.12884079
O      1.57345031     2.49621577     2.71650127
H      0.45377646     2.36678824     2.73695870
H      1.78737606     2.32009987     1.78015038
O     -1.29531410     2.44424947     2.67297299
H     -1.35077660     2.42637253     1.81474382
H     -0.46357703     2.34444976     3.05843236
O     -2.78598717     0.18161251     2.64364268
H     -2.28644871    -0.84085459     2.70590095
H     -3.02846708     0.28441437     1.79868993
O     -1.30956060    -2.44307664     2.77241612
H     -1.43738753    -2.29796259     1.70373295
H     -0.45583268    -2.34941628     3.06018085
O      1.35306454    -2.39590936     2.74544473
H      1.82303223    -1.54727054     2.75432680
H      1.33415514    -2.46087540     1.70009928
36
water clusters ood_size frame=268
O      2.91591177    -0.00890826    -0.10026000
H      2.26423306     0.76350019    -0.08489782
H      2.85858765    -0.12921276     1.11050697
O      1.25931393     2.30456366    -0.04278704
H      1.60515392     2.54270772     0.83977843
H      2.29615948     2.32586309    -0.10390406
O     -1.46768483     2.41208400     0.00328038
H     -1.98491187     1.40959845     0.02007734
H     -1.42616237     2.45321626     0.90777770
O     -2.85637743    -0.05817978     0.03960952
H     -2.65423851     0.02237616     0.93257466
H     -1.76916238    -0.14457353    -0.13316606
O     -1.33178325    -2.35022280     0.00278007
H     -0.27343938    -2.27575735     0.12892598
H     -1.58830468    -2.19798958     0.76448310
O      1.34539183    -2.55369168    -0.12370079
H      1.34615213    -2.47778161     1.11636603
H      2.23253316    -2.58208711    -0.33664320
O      2.83223948     0.07757061     2.71948496
H      2.62701036     0.05691979     1.71515995
H      3.66554533     0.26815943     2.97592282
O      1.48696737     2.58706388     2.84114376
H      0.50183866     2.38768558     2.85149662
H      1.74963713     2.40784012     1.79353356
O     -1.53289170     2.46740550     2.57332135
H     -1.46865618     2.43553341     1.77893742
H     -0.43327639     2.47022022     2.87303979
O     -2.77657388     0.09982133     2.72494814
H     -2.34836932    -0.94209863     2.73700001
H     -2.86584999     0.12663220     1.94991439
O     -1.37512727    -2.35498790     2.63208658
H     -1.46025133    -2.30006413     1.65892269
H     -0.52417722    -2.29412741     2.98853464
O      1.30872832    -2.57476375     2.67004241
H      1.90292937    -1.55347453     2.77234995
H      1.26262358    -2.62018733     1.54360997
36
water clusters ood_size frame=269
O      2.79806488     0.03739228    -0.02534947
H      2.30232315     0.88476091     0.01172885
H      2.85719811    -0.25091342     0.96590504
O      1.33733297     2.41099593     0.02318895
H      1.42054138     2.36337050     0.93282375
H      2.29419982     2.36286381    -0.19190836
O     -1.36314624     2.39800424    -0.00672656
H     -1.86345173     1.57314065     0.00698665
H     -1.25908969     2.64008001     0.84185198
O     -2.76020115     0.00895241     0.01520493
H     -2.82193907    -0.04259670     0.97461162
H     -1.94234057    -0.07145013    -0.19622895
O     -1.33298350    -2.39344767     0.03521865
H     -0.39216337    -2.37292622    -0.00276449
H     -1.54965580    -2.40152682     0.90952954
O      1.34480931    -2.38430154    -0.01341333
H      1.33919557    -2.34376840     0.94147891
H      2.30392148    -2.45698208    -0.23013821
O      2.72227638     0.03684323     2.72187684
H      2.81634480     0.05088608     1.86579758
H      3.66072634     0.01481358     3.00405046
O      1.46687540     2.38936104     2.75861924
H      0.37894641     2.38991809     2.75094134
H      1.74769088     2.38371599     1.74983308
O     -1.32439487     2.32011292     2.74635372
H     -1.33531859     2.39528728     1.82335658
H     -0.46142511     2.38927594     2.94437553
O     -2.73295187     0.07585500     2.76329225
H     -2.29968378    -0.94312658     2.60886500
H     -2.88868856     0.23074476     1.86354916
O     -1.41849249    -2.32771351     2.71525474
H     -1.33190316    -2.45766859     1.72925014
H     -0.46806508    -2.33374118     3.01808136
O      1.36986924    -2.38833052     2.79222428
H      1.80142269    -1.69213228     2.73923798
H      1.19114673    -2.59277587     1.79134505
36
water clusters ood_size frame=270
O      2.75306978    -0.03753989     0.11048017
H      2.22163853     0.73372381    -0.01913831
H      2.84274033    -0.23650749     0.90329433
O      1.42439647     2.32272361     0.02303720
H      1.37003711     2.39664849     1.01299450
H      2.43700413     2.36560239    -0.22553473
O     -1.46707684     2.43003718    -0.05591192
H     -1.81064767     1.53623596     0.03616257
H     -1.31815646     2.51097928     0.93137177
O     -2.68387044     0.04792136    -0.00890337
H     -2.61912420     0.01666849     0.76043098
H     -1.76255441     0.05108208    -0.28508014
O     -1.35010215    -2.40518351     0.11111747
H     -0.38752915    -2.28620657    -0.10718386
H     -1.72881777    -2.36513654     0.85667634
O      1.27954733    -2.39971444     0.04323293
H      1.24335785    -2.43075273     0.99241240
H      2.36458144    -2.39406690    -0.20769020
O      2.78127851     0.11467044     2.64270615
H      2.71804369     0.14623213     1.71678218
H      3.59000453    -0.04367690     2.90631100
O      1.40895205     2.44592366     2.76582087
H      0.57800502     2.36100306     2.76077366
H      1.60118568     2.30581990     1.79216261
O     -1.36149540     2.45069624     2.78927581
H     -1.30843989     2.50037640     1.61520085
H     -0.43427563     2.32884299     2.89255794
O     -2.67932915     0.02485041     2.64061387
H     -2.32605173    -0.85858140     2.74331716
H     -2.76615994     0.16208816     1.74854332
O     -1.28785726    -2.30543670     2.63816526
H     -1.39231691    -2.48728991     1.73096010
H     -0.48258554    -2.45402265     2.97824211
O      1.24049334    -2.26653176     2.67776971
H      1.83400360    -1.64207649     2.73868164
H      1.17148679    -2.59930866     1.68690176
36
water clusters ood_size frame=271
O      2.76518163     0.13004634    -0.09261730
H      2.09160045     0.80149082    -0.07138087
H      2.89513033     0.00507615     0.79746998
O      1.41020314     2.50461685    -0.14784216
H      1.31422881     2.56739227     0.76145097
H      2.23202370     2.47974813    -0.18961667
O     -1.43541179     2.39145160     0.04090249
H     -1.83522173     1.54186562     0.02203176
H     -1.37797249     2.86647656     1.11616331
O     -2.66303683    -0.01820024    -0.13351277
H     -2.96522536    -0.04057863     0.90982086
H     -1.84659495     0.05601824    -0.36274439
O     -1.38203690    -2.25353689    -0.07945436
H     -0.45024309    -2.24626921     0.15936378
H     -1.54342476    -2.34551525     0.96330147
O      1.33157056    -2.39949675    -0.11020933
H      1.38198283    -2.35465911     0.91074334
H      2.38941904    -2.39285965    -0.49657218
O      2.79917828    -0.06100714     2.74801414
H      2.87215384    -0.06646295     1.65212310
H      3.66671014     0.01421596     2.98372415
O      1.39569218     2.42531970     2.51394504
H      0.40890336     2.47844280     2.58973368
H      1.64457999     2.47910315     1.71825424
O     -1.27691695     2.30703116     2.71954143
H     -1.22369559     2.26575549     1.77344682
H     -0.34454689     2.34053999     2.92327697
O     -2.64621652    -0.02834292     2.70178653
H     -2.31061763    -0.87767909     2.75834803
H     -2.80351705     0.17539324     1.89322075
O     -1.30858830    -2.27379594     2.62961705
H     -1.38162039    -2.24896648     1.76504393
H     -0.56755674    -2.57572230     2.90454741
O      1.31649968    -2.25691541     2.62096054
H      1.83347110    -1.56401075     2.88058808
H      1.26130326    -2.47359955     1.47947946
36
water clusters ood_size frame=272
O      2.68766232    -0.02139843     0.07770424
H      2.29236585     0.81939953    -0.00370587
H      2.91617245    -0.15080920     0.96254990
O      1.36333227     2.32815783     0.00526435
H      1.30053218     2.39390060     0.85633644
H      2.39643371     2.40792680    -0.25620713
O     -1.42994046     2.36084911     0.01825675
H     -1.88955664     1.50743087     0.02436545
H     -1.24436904     2.66201752     0.92195514
O     -2.83109934     0.08702446     0.10106683
H     -2.73420303     0.07773427     0.92950628
H     -1.91413297    -0.00722373    -0.26824335
O     -1.39941676    -2.40369768    -0.03327536
H     -0.45591543    -2.45717708     0.06518941
H     -1.62586635    -2.42001840     0.91772036
O      1.41139002    -2.36243578     0.05875602
H      1.31850867    -2.41464584     0.86278808
H      2.42023843    -2.42601517    -0.09232924
O      2.70371358     0.01658177     2.71500042
H      2.74543117    -0.05313988     1.79767073
H      3.78038436    -0.01821409     2.96021511
O      1.36004211     2.32423127     2.82077719
H      0.37233900     2.40626170     2.70417480
H      1.64437127     2.40282245     1.73952849
O     -1.41630758     2.41855111     2.84600020
H     -1.35903000     2.40680638     1.75359626
H     -0.51226489     2.38862629     3.03658624
O     -2.70518559    -0.01971763     2.62731800
H     -2.27634409    -0.70695557     2.71015062
H     -2.83221726     0.16109422     1.79202230
O     -1.45599123    -2.34897349     2.77708595
H     -1.43786345    -2.44527493     1.72062179
H     -0.41878513    -2.41998428     3.04610661
O      1.37220499    -2.49599947     2.67555621
H      1.75279306    -1.57308981     2.63420769
H      1.27242984    -2.56039279     1.85291985
36
water clusters ood_size frame=273
O      2.76701826    -0.05904067    -0.02893301
H      2.24113697     0.74171991    -0.09064606
H      2.99073668    -0.21802252     0.92638385
O      1.41422299     2.38018385    -0.03368300
H      1.45581057     2.35342071     0.91377986
H      2.34797454     2.46276648    -0.25978064
O     -1.25519721     2.38178419     0.02131511
H     -1.77830740     1.59260678     0.07681996
H     -1.35415441     2.59929209     1.00572084
O     -2.84916810     0.00396537    -0.02422270
H     -2.68315336     0.00428874     0.98456920
H     -1.83293826    -0.06060905    -0.15694748
O     -1.33667848    -2.40577472    -0.00653093
H     -0.47865757    -2.46243649     0.00327756
H     -1.55205018    -2.34860812     0.94947661
O      1.42358984    -2.43686350    -0.11942861
H      1.41573785    -2.36682540     1.00779233
H      2.34847776    -2.40645470    -0.19218410
O      2.93266391    -0.03833408     2.83555678
H      2.74254131    -0.07339518     1.87941321
H      3.74634830    -0.04893862     2.96366169
O      1.41744861     2.34881111     2.80595875
H      0.43151355     2.45609347     2.74929748
H      1.70862795     2.46399875     1.84633752
O     -1.38510321     2.38972210     2.76754361
H     -1.45173581     2.39386213     1.68541617
H     -0.35207083     2.37649410     2.96068282
O     -2.72839783     0.05490301     2.80236400
H     -2.31352401    -0.92316452     2.66154675
H     -2.84206425     0.04135949     1.73298406
O     -1.36623756    -2.30564557     2.92621543
H     -1.41818274    -2.37344939     1.78274933
H     -0.45933905    -2.36537339     2.86684973
O      1.45988618    -2.36723920     2.72862089
H      1.78822667    -1.59902108     2.78853123
H      1.17316749    -2.53584815     1.80490295
36
water clusters ood_size frame=274
O      2.84005269    -0.01110909     0.10012045
H      2.22036085     0.72436116     0.02127498
H      3.10581084    -0.31360557     0.85568726
O      1.16839483     2.36945644    -0.04350843
H      1.52211659     2.29597487     0.74027258
H      2.25342401     2.51241138    -0.34720949
O     -1.26623588     2.45329810     0.07000353
H     -1.85436406     1.54403014    -0.04515899
H     -1.42630254     2.60115450     0.91008801
O     -2.87201676    -0.01705162    -0.07101743
H     -2.71653793    -0.04882527     1.05842846
H     -1.69002530     0.10092698    -0.31588954
O     -1.41677248    -2.25879061    -0.05606058
H     -0.41885995    -2.41979065     0.24394811
H     -1.61210534    -2.43901904     0.90344327
O      1.33453847    -2.38380870    -0.09082433
H      1.58874261    -2.26771577     1.06851780
H      2.35243364    -2.60310021    -0.07755514
O      2.78870580     0.02046138     2.61314146
H      2.68238625    -0.03808446     1.69190198
H      3.79792796    -0.02608460     2.96798026
O      1.14195554     2.51590604     2.76399093
H      0.26543395     2.19583047     2.60740928
H      1.53063584     2.27790150     1.77413459
O     -1.51242402     2.41694778     2.72131842
H     -1.35405636     2.71825703     1.73880400
H     -0.46558438     2.41761776     3.15776257
O     -2.84566228     0.03016955     2.56184618
H     -2.41664976    -0.74007740     2.72047878
H     -2.81686168     0.23473072     1.80986967
O     -1.39297256    -2.43110819     2.60509455
H     -1.39139679    -2.32041561     1.73970532
H     -0.56342439    -2.44123539     2.83284483
O      1.35668460    -2.45478825     2.62304879
H      1.86129453    -1.48731527     2.72830755
H      1.30296546    -2.70577288     1.79229685
36
water clusters ood_size frame=275
O      2.75498652     0.02383830     0.04451422
H      2.35659506     0.86308042    -0.06469357
H      2.87532468    -0.20031944     0.90722254
O      1.33959768     2.39981395     0.03041644
H      1.37371174     2.37709626     1.00002932
H      2.24918386     2.36336231    -0.23742214
O     -1.32113359     2.41180618     0.01034803
H     -1.84956655     1.52221409    -0.01017680
H     -1.18182311     2.57172204     1.04854480
O     -2.73898941    -0.00176749     0.07087534
H     -2.75700862     0.04325832     1.01761256
H     -1.77530282    -0.03694970    -0.20884223
O     -1.40940679    -2.32790020    -0.00049579
H     -0.46355676    -2.34085163     0.03740387
H     -1.57551715    -2.41206639     0.89757698
O      1.38260664    -2.37730264     0.10355748
H      1.44649236    -2.44738224     1.08165806
H      2.23741984    -2.46588651    -0.20356288
O      2.82763599     0.02842641     2.70282328
H      2.71732146    -0.02453972     1.77617059
H      3.74190494    -0.06504578     3.04411086
O      1.42909562     2.39224027     2.71772104
H      0.48812527     2.37343033     2.71386041
H      1.65612115     2.37706408     1.77795240
O     -1.43553874     2.40431033     2.64279934
H     -1.40461108     2.37733094     1.71387075
H     -0.50935830     2.36134685     2.97393644
O     -2.78040792    -0.06579281     2.76328696
H     -2.23852644    -0.88415193     2.66385925
H     -2.92311240     0.24743604     1.78743647
O     -1.33369783    -2.38466973     2.71874010
H     -1.41530237    -2.43732285     1.80364072
H     -0.45101420    -2.33803972     2.90171422
O      1.34277049    -2.32825152     2.75178117
H      1.87233841    -1.44504634     2.68810512
H      1.28813712    -2.53926243     1.77279729
36
water clusters ood_size frame=276
O      2.78134985    -0.11157275     0.02453369
H      2.27438149     0.71054756    -0.09867096
H      2.80563313    -0.28545941     0.93064575
O      1.44740559     2.35109096    -0.07498598
H      1.29456491     2.45973817     1.01766539
H      2.34466404     2.35755970    -0.23189250
O     -1.43672618     2.39467471    -0.09974936
H     -1.84029231     1.50547660    -0.09905728
H     -1.31289956     2.52731398     0.88504414
O     -2.81935696     0.04859667    -0.08354725
H     -2.74947731    -0.08755092     0.97420589
H     -1.92738026    -0.00117904    -0.19755296
O     -1.35699315    -2.26265136     0.12178877
H     -0.34881033    -2.30419350     0.01871395
H     -1.60019983    -2.33471052     0.91907948
O      1.31883752    -2.33582214    -0.00479663
H      1.41313833    -2.39499099     0.95992189
H      2.35238561    -2.50142964    -0.27033657
O      2.77135716     0.02824729     2.83843523
H      2.80841393     0.02290055     1.77369286
H      3.60705425     0.07669349     2.96803384
O      1.32355483     2.41686576     2.79638682
H      0.45805699     2.46332167     2.79902648
H      1.70386196     2.44297810     1.83350849
O     -1.41679453     2.28095795     2.68217380
H     -1.44743939     2.37559249     1.77793260
H     -0.44192253     2.39338047     2.90672634
O     -2.79569888     0.12476573     2.78637178
H     -2.23138998    -0.86738994     2.79435556
H     -3.08664592     0.23071758     1.85909595
O     -1.50355186    -2.47918849     2.73614800
H     -1.25914576    -2.36280158     1.78616976
H     -0.38644003    -2.39283500     2.89586783
O      1.33685774    -2.29423277     2.68363465
H      1.94860577    -1.58276052     2.80223316
H      1.14555600    -2.60940877     1.75687305
36
water clusters ood_size frame=277
O      2.86555149    -0.11555055    -0.12239861
H      2.21993025     0.74639172     0.04316595
H      2.89788754    -0.26281736     0.95935049
O      1.50990285     2.50450497     0.14128843
H      1.47598271     2.51621317     0.93996498
H      2.35525172     2.25469284    -0.13204968
O     -1.46610820     2.29702482    -0.00956198
H     -1.97047996     1.51700688    -0.07496099
H     -1.23489087     2.64035453     0.88688726
O     -2.66237243     0.10866384    -0.06856147
H     -2.63273493    -0.02616209     1.04655942
H     -1.77450088     0.08993901    -0.20185975
O     -1.55428367    -2.30114935    -0.17239397
H     -0.47779803    -2.43307822     0.06612106
H     -1.57596084    -2.37751483     1.03705296
O      1.23692672    -2.47653861     0.02926713
H      1.47627126    -2.53748184     1.13822318
H      2.32577711    -2.34918571    -0.23540817
O      2.58116888     0.00298064     2.93136318
H      2.70708926     0.07853804     1.73129747
H      3.71955637     0.11752639     3.02260362
O      1.29214136     2.40718478     2.76759342
H      0.36742959     2.45948678     2.80440276
H      1.49801524     2.40601554     1.76162821
O     -1.34898452     2.38350382     2.62158439
H     -1.21123339     2.41610014     1.84397747
H     -0.40753181     2.40108508     2.99809162
O     -2.82732508     0.06247826     2.79039929
H     -2.31097532    -0.68810185     2.75766193
H     -2.73653346     0.13219709     1.88793352
O     -1.46680933    -2.33884909     2.76089879
H     -1.34439919    -2.40567463     1.86909136
H     -0.46707790    -2.40208044     2.80272851
O      1.14890176    -2.32688958     2.80638631
H      1.72832471    -1.65079414     2.74591330
H      1.17559200    -2.37091306     1.80839186
36
water clusters ood_size frame=278
O      2.68946533    -0.01460058    -0.03421531
H      2.24047167     0.90173007     0.08210722
H      2.89248645    -0.13421816     0.88865399
O      1.43477004     2.41506357    -0.01802425
H      1.39570076     2.38730604     0.90312252
H      2.28276372     2.38572697    -0.27336704
O     -1.39417766     2.44232235     0.03889220
H     -1.80257612     1.55229138     0.08745803
H     -1.16556472     2.61539638     1.01119904
O     -2.74900032    -0.03557586     0.05150171
H     -2.68778938    -0.03521081     0.87179469
H     -1.86727246     0.01266241    -0.23977003
O     -1.40206936    -2.40804742    -0.04111765
H     -0.47404171    -2.41621595    -0.00883267
H     -1.63331424    -2.43501322     0.90484870
O      1.33043771    -2.32439481    -0.03749587
H      1.35604986    -2.42930721     0.98154727
H      2.36210813    -2.41800909    -0.35168559
O      2.78533233     0.05382775     2.68426140
H      2.73569862    -0.05423031     1.80439766
H      3.68811545    -0.02792765     2.98810309
O      1.40653178     2.45192540     2.70403687
H      0.47312063     2.40325281     2.71435641
H      1.63139018     2.36490581     1.65914712
O     -1.34391464     2.33643627     2.67621830
H     -1.39979798     2.42646426     1.62257179
H     -0.53897494     2.46636255     2.99419609
O     -2.79157067    -0.05603725     2.68595486
H     -2.25117040    -0.79442512     2.68303754
H     -2.84366935     0.19131224     1.78631319
O     -1.28335003    -2.31258481     2.73190867
H     -1.46961420    -2.36229483     1.75176108
H     -0.42217623    -2.42404149     2.97623519
O      1.42320987    -2.33240527     2.58438652
H      1.91438348    -1.49393409     2.74728148
H      1.20474399    -2.59549196     1.89563792
36
water clusters ood_size frame=279
O      2.77721374     0.09997120    -0.14190692
H      2.10957771     1.01381592    -0.04879680
H      2.80981044    -0.10324084     1.01952539
O      1.40428785     2.34740938    -0.03095192
H      1.33435375     2.39149236     0.99758516
H      2.27310820     2.25837815    -0.11287852
O     -1.30354664     2.43124128    -0.13821317
H     -1.93696849     1.64012718    -0.04589799
H     -1.33517620     2.81193650     0.86288793
O     -2.71802099     0.17709746    -0.02698810
H     -2.80461028     0.02661193     1.10614784
H     -1.89099840    -0.00689844    -0.24920923
O     -1.36159890    -2.34490721    -0.10051437
H     -0.46576877    -2.40463990    -0.09980819
H     -1.63576939    -2.42882193     0.82581460
O      1.57132436    -2.42379029     0.02071818
H      1.41291558    -2.44855680     0.86333693
H      2.28819940    -2.43922008    -0.28027965
O      2.70209873    -0.01173797     2.76822339
H      2.85209863     0.01766779     1.72281981
H      3.61947886     0.07427999     2.97415149
O      1.34176078     2.40870579     2.73234773
H      0.45517551     2.28087906     2.58566186
H      1.52739843     2.45218191     1.76783830
O     -1.43792558     2.49439127     2.78346562
H     -1.29079937     2.44787709     1.75129771
H     -0.39370549     2.26373847     3.09383827
O     -2.71125777     0.07097777     2.75134160
H     -2.25414792    -0.81543059     2.71776429
H     -2.93239932     0.39825033     1.82974129
O     -1.35284953    -2.35629455     2.70817531
H     -1.36451280    -2.37176992     1.67045732
H     -0.43490117    -2.39225492     2.98212867
O      1.38946826    -2.40769984     2.76981961
H      1.81965615    -1.51729331     2.75751325
H      1.15550797    -2.46683391     1.64760275
36
water clusters ood_size frame=280
O      2.65580167     0.16890412    -0.00779681
H      2.29291960     0.87670083     0.02649710
H      2.84763446    -0.30162514     0.86629271
O      1.41885245     2.40091954    -0.00281929
H      1.38271132     2.15557937     1.02541707
H      2.35021234     2.43438333    -0.36224041
O     -1.30483896     2.20319411     0.00898588
H     -2.01337429     1.61326425    -0.03255801
H     -1.24031623     2.61097429     1.06259766
O     -2.73928943     0.00762142    -0.07205999
H     -2.88565393     0.17829056     1.06741415
H     -1.99375123    -0.05540374    -0.18526919
O     -1.26437969    -2.36430366    -0.11254155
H     -0.53979379    -2.19016043    -0.00159373
H     -1.57518303    -2.41476445     1.07656674
O      1.20825193    -2.47976019    -0.17861982
H      1.31138791    -2.44093601     0.84226503
H      2.34742981    -2.50433327    -0.18015069
O      2.75477500    -0.03377691     2.87450295
H      2.76208015     0.22018681     1.73719398
H      3.73791233     0.05435615     2.90014534
O      1.39549876     2.56687581     2.78983657
H      0.53077371     2.49883554     2.82323159
H      1.73266148     2.21274799     1.80802462
O     -1.34433564     2.24636301     2.89791569
H     -1.50849936     2.29376772     1.67681887
H     -0.50907666     2.58510482     3.02050583
O     -2.66604103    -0.04397247     2.67674072
H     -2.18721059    -0.83432125     2.76809680
H     -2.64247773     0.17330016     1.89479423
O     -1.33589108    -2.47397605     2.69690565
H     -1.30511445    -2.49166496     1.65805434
H     -0.43572814    -2.52307240     2.84532927
O      1.52126507    -2.53460558     2.70579136
H      1.90786800    -1.52581178     2.59723561
H      1.42655824    -2.57542862     1.67352650
36
water clusters ood_size frame=281
O      2.73811048    -0.00882033    -0.06569375
H      2.29495040     0.84894047    -0.03596185
H      2.84416933    -0.20031225     0.93260371
O      1.40316999     2.35981459    -0.03294084
H      1.38111076     2.43706815     0.95204344
H      2.23769463     2.37365249    -0.27130548
O     -1.32674270     2.39327588     0.03744725
H     -1.85428911     1.49266683    -0.04164557
H     -1.35999281     2.68103690     0.99920762
O     -2.76025327    -0.10735100    -0.03410536
H     -2.75196350     0.00979073     0.94557096
H     -1.92455488    -0.05249900    -0.23589767
O     -1.45850508    -2.31326967     0.01289700
H     -0.38152246    -2.41834626    -0.13969683
H     -1.61732364    -2.38527348     0.98182013
O      1.46063259    -2.44263418    -0.08425457
H      1.29967041    -2.36457181     0.93560983
H      2.27422940    -2.40687088    -0.09977971
O      2.80420267     0.02399510     2.75597020
H      2.75189986     0.04897124     1.72390872
H      3.60232137    -0.02196964     2.89866866
O      1.41195673     2.27984085     2.70189771
H      0.36315642     2.35998549     2.71404819
H      1.61963800     2.38582397     1.80337084
O     -1.39715119     2.35177320     2.73978517
H     -1.37841199     2.44812502     1.82119795
H     -0.48845826     2.39758104     3.01365266
O     -2.80008246     0.02820654     2.75396338
H     -2.21238281    -0.76782144     2.69069897
H     -2.88230159     0.12094376     1.83059622
O     -1.46682200    -2.31558438     2.68705704
H     -1.36938162    -2.33265424     1.74218021
H     -0.39658604    -2.43240637     2.92625920
O      1.35444442    -2.46054294     2.73860199
H      1.82098760    -1.59122665     2.70689337
H      1.15734986    -2.61507904     1.85706108
36
water clusters ood_size frame=282
O      2.75775815     0.05982165     0.08564723
H      2.30110596     0.86373189    -0.04883047
H      2.89535577    -0.19457920     0.95361602
O      1.45154654     2.48716469    -0.06625189
H      1.37740267     2.47224617     0.98552742
H      2.31586820     2.26443757    -0.27536576
O     -1.37924183     2.26603021     0.01524791
H     -1.90479754     1.57339355     0.09768154
H     -1.32620647     2.65103184     0.95262437
O     -2.79290831     0.09123291    -0.02252311
H     -2.73034431     0.02623774     0.86520409
H     -1.80342940     0.03073415    -0.24216461
O     -1.30912754    -2.32328792     0.00446186
H     -0.29889247    -2.38625933    -0.04609265
H     -1.66358116    -2.27576643     0.84144170
O      1.34763307    -2.33393810    -0.04460536
H      1.40016477    -2.46763722     0.95568445
H      2.28034177    -2.36177948    -0.19384990
O      2.73255807    -0.03384882     2.80285520
H      2.68350761     0.00601431     1.77194191
H      3.59007322    -0.08603455     2.95471522
O      1.38051835     2.26667886     2.79740210
H      0.42185249     2.37832354     2.61006872
H      1.62939153     2.28955271     1.72256924
O     -1.39432838     2.25556558     2.74557010
H     -1.38407603     2.25258941     1.86466306
H     -0.32648475     2.40240205     2.97555901
O     -2.86444672    -0.06971793     2.66699778
H     -2.32648160    -0.91182064     2.64959492
H     -2.84604953     0.23533891     1.73263355
O     -1.21256669    -2.27950015     2.72126585
H     -1.34708348    -2.36079425     1.68076557
H     -0.50693364    -2.29309945     3.02865170
O      1.42737110    -2.23863023     2.75750664
H      1.89033248    -1.53892457     2.70822380
H      1.20665861    -2.57568795     1.75799794
36
water clusters ood_size frame=283
O      2.60197295    -0.03707503     0.06500862
H      2.24697224     0.97209104    -0.05665103
H      2.90347743    -0.22180100     0.90451427
O      1.42830005     2.59036860     0.09816658
H      1.25145292     2.16479959     0.92478841
H      2.41526176     2.35445795    -0.32320059
O     -1.47847794     2.32456363    -0.03638142
H     -1.87117750     1.56616785    -0.00725186
H     -1.17150929     2.54734915     0.84527982
O     -2.67541720    -0.29498336     0.14943408
H     -2.77088181     0.04069481     0.95120476
H     -1.78526019    -0.09255002    -0.32656974
O     -1.41681934    -2.40532352    -0.11915969
H     -0.44454235    -2.47399792    -0.17835132
H     -1.39409393    -2.16663384     0.85723120
O      1.47650267    -2.47897978    -0.11044181
H      1.46359747    -2.38570313     0.97026939
H      2.57706457    -2.49228108    -0.12751731
O      2.86199676    -0.08613839     2.80213948
H      2.96856925     0.03580423     1.74165958
H      3.79318202     0.03919944     2.96013906
O      1.29791362     2.52799347     2.64607881
H      0.38394492     2.31615202     2.73523536
H      1.64544207     2.40555348     1.98362378
O     -1.48536724     2.27950757     2.89884256
H     -1.29873019     2.32767763     1.78479545
H     -0.43638037     2.25672456     2.85958494
O     -2.60285110    -0.10219759     2.73386794
H     -2.18060399    -0.87868679     2.59722324
H     -2.85463968     0.13162133     1.70753970
O     -1.25583514    -2.35519583     2.83774591
H     -1.50205569    -2.38296447     1.78772150
H     -0.38020966    -2.34716752     2.88048044
O      1.42866849    -2.20388519     2.74035014
H      1.85360454    -1.53412315     2.70255937
H      1.41958849    -2.70390364     1.76275939
36
water clusters ood_size frame=284
O      2.69255475     0.02202537    -0.04853932
H      2.29774902     0.78457968    -0.03327068
H      2.93102955    -0.18102323     0.93210150
O      1.37373412     2.43589974     0.07702121
H      1.39680250     2.31625691     0.85665884
H      2.29688954     2.44052501    -0.24035290
O     -1.24073889     2.39264749    -0.05100142
H     -1.85294867     1.52655984     0.18009986
H     -1.37112704     2.69668577     0.89288763
O     -2.69777219    -0.01149254    -0.01285627
H     -2.73018772    -0.05649493     0.97173752
H     -1.85921320    -0.00097272    -0.23565888
O     -1.35408981    -2.44996240    -0.02866809
H     -0.54676911    -2.40296765     0.02530502
H     -1.57915281    -2.37180318     0.87844323
O      1.42421311    -2.39103573    -0.09112874
H      1.44673310    -2.49040644     0.91966562
H      2.22329366    -2.49650127    -0.25124148
O      2.79266099     0.03928614     2.69989531
H      2.74458732    -0.03255157     1.85863387
H      3.73371616    -0.00526841     2.99787251
O      1.31114516     2.32139277     2.70344709
H      0.43797222     2.36487146     2.73732928
H      1.63267959     2.44043409     1.84754527
O     -1.43791635     2.40633579     2.80318751
H     -1.45944235     2.47183099     1.74151233
H     -0.48471646     2.37914857     3.03969376
O     -2.78484092     0.03475397     2.71013178
H     -2.20674828    -0.83577210     2.77293074
H     -2.91777094     0.18111095     1.80541213
O     -1.32523984    -2.39913513     2.69062549
H     -1.41986118    -2.42317232     1.75710171
H     -0.45486644    -2.42125798     2.95369106
O      1.34488174    -2.32784448     2.69801049
H      1.84338925    -1.51241005     2.74447983
H      1.25722287    -2.60509490     1.84996721
36
water clusters ood_size frame=285
O      2.78365059     0.01826151    -0.01516506
H      2.21746258     0.87291421    -0.11681383
H      2.92422672    -0.14257473     0.84611497
O      1.46708850     2.48827649     0.18126426
H      1.25706306     2.40726524     0.98618560
H      2.37345182     2.40077467    -0.20190261
O     -1.31482297     2.57557635    -0.03576048
H     -1.90299341     1.54773718     0.07219643
H     -1.29103326     2.48290939     0.82073327
O     -2.76815584     0.01450394    -0.05502240
H     -2.73117193    -0.01808595     0.88874344
H     -1.72927601     0.01806593    -0.16447646
O     -1.42843889    -2.39491227    -0.03750767
H     -0.31768423    -2.35521011    -0.00879681
H     -1.70960623    -2.30212921     0.82745743
O      1.39865283    -2.34507814     0.16029339
H      1.24529850    -2.42624286     1.02294002
H      2.15038752    -2.38002349    -0.28041455
O      2.77040207     0.12919908     2.67993523
H      2.78637388     0.01439033     1.61853892
H      3.63339531    -0.04271222     2.89850884
O      1.40847171     2.45420704     2.69387659
H      0.40411760     2.34325081     2.65869655
H      1.64955781     2.44575072     1.74156448
O     -1.32560309     2.34596195     2.78877831
H     -1.43528840     2.38486770     1.77856249
H     -0.46611000     2.38075641     2.85801869
O     -2.89158139    -0.08062517     2.71807134
H     -2.26974061    -0.84728444     2.58514110
H     -2.89601819     0.19931327     1.75071161
O     -1.30111968    -2.29619879     2.79503341
H     -1.36260859    -2.45153975     1.66295061
H     -0.32200699    -2.39658125     2.96685341
O      1.44667114    -2.26167688     2.75136652
H      1.88199178    -1.62222897     2.58436267
H      1.17788861    -2.65792520     1.85278637
36
water clusters ood_size frame=286
O      2.65946952     0.04733167    -0.23326515
H      2.31506807     0.83433979     0.02293376
H      2.81321785    -0.04278691     0.94678946
O      1.47097276     2.37427240    -0.02792967
H      1.49572690     2.36843099     0.98207138
H      2.30363954     2.46579562    -0.32279793
O     -1.32489535     2.33331832     0.01866563
H     -2.01440720     1.58350705    -0.14713924
H     -1.37610806     2.49835168     0.91422065
O     -2.69142383     0.04736876     0.06085449
H     -2.66338630     0.11987168     1.03514747
H     -1.88049672    -0.06895853    -0.01662514
O     -1.48695396    -2.34168534     0.08512137
H     -0.58294976    -2.23956651    -0.01667191
H     -1.52151909    -2.50063736     1.00367708
O      1.47307820    -2.42006004    -0.06371074
H      1.37494526    -2.40786058     0.97351596
H      2.31413116    -2.30388957    -0.30248946
O      2.76321110     0.01047079     2.60197205
H      2.69270789     0.01956200     1.81056125
H      3.54361148     0.04621224     2.93777497
O      1.35500450     2.54658303     2.77119413
H      0.48261164     2.29084699     2.64387280
H      1.47051627     2.37047614     1.85915459
O     -1.40287844     2.49977095     2.63601150
H     -1.40035333     2.32134776     1.78422620
H     -0.37225214     2.23607608     2.91987276
O     -2.67552870     0.05189938     2.65850660
H     -2.31866472    -0.95553076     2.56417247
H     -2.73142615     0.27887158     1.87285871
O     -1.54549626    -2.36143145     2.61667151
H     -1.44661544    -2.49453442     1.77059394
H     -0.58750582    -2.52053149     2.94031900
O      1.35630196    -2.45376885     2.69949379
H      1.75295003    -1.57758934     2.73739634
H      1.25633339    -2.77800164     1.53066920
36
water clusters ood_size frame=287
O      2.73495527     0.06164102    -0.01476691
H      2.31673431     0.89124726     0.05317405
H      2.91130424    -0.20744184     0.94789837
O      1.34431569     2.43302402     0.02278632
H      1.44354630     2.37345464     0.93029035
H      2.26777156     2.45603479    -0.26685596
O     -1.30569753     2.32685939    -0.16906839
H     -1.84405954     1.50683002     0.02173550
H     -1.19885194     2.58936749     0.99442132
O     -2.78066206    -0.04804976    -0.06055490
H     -2.77902293    -0.04045321     0.95667622
H     -1.83202544    -0.07272370    -0.25646104
O     -1.40521743    -2.36600673     0.02620705
H     -0.43087677    -2.41449765     0.01468743
H     -1.63334730    -2.27960992     0.94068686
O      1.41697912    -2.25526236     0.07985933
H      1.39618743    -2.36199617     0.96646925
H      2.32771121    -2.33832302    -0.15016430
O      2.65697616    -0.00870450     2.70626355
H      2.70923010     0.10101084     1.74512522
H      3.75689963    -0.04419875     2.96362463
O      1.39736894     2.38793125     2.72030407
H      0.42545227     2.44451327     2.70499270
H      1.65349510     2.43279728     1.85336788
O     -1.41990680     2.42790299     2.69978451
H     -1.41145105     2.50158687     1.83174096
H     -0.50937875     2.41953448     2.94244394
O     -2.69829685     0.01982864     2.75202794
H     -2.37143162    -0.79310563     2.83079802
H     -2.84197920     0.23174158     1.79736762
O     -1.37724677    -2.45958592     2.77434859
H     -1.35452210    -2.36011600     1.71556607
H     -0.42754082    -2.32770138     2.95006083
O      1.41033990    -2.36188137     2.76934964
H      1.83180618    -1.50427437     2.69682272
H      1.17154972    -2.54315686     1.91428860
36
water clusters ood_size frame=288
O      2.68747840     0.08483864    -0.10565044
H      2.22438734     0.75786125     0.08885397
H      2.90279357    -0.18424229     0.92168418
O      1.45324548     2.40031507    -0.16641466
H      1.40821730     2.46294711     0.99612685
H      2.33011579     2.55788253    -0.19970498
O     -1.38805429     2.26344596     0.08890996
H     -1.73719677     1.52747917     0.02278882
H     -1.28755618     2.60237867     0.93892588
O     -2.73684780    -0.06951298    -0.03828286
H     -2.65711466    -0.05288867     0.96841518
H     -1.81916761    -0.07946277    -0.25545201
O     -1.31695857    -2.38895233    -0.04681521
H     -0.38086206    -2.27637095    -0.07014399
H     -1.78870284    -2.45429759     0.94593381
O      1.35775631    -2.47421362    -0.01708783
H      1.36798103    -2.46459114     0.95911206
H      2.21729024    -2.34442236    -0.33034528
O      2.82144903    -0.09609847     2.61957091
H      2.67583806     0.01591106     1.64825551
H      3.63229358     0.08665163     2.97422788
O      1.50937773     2.46199034     2.82517945
H      0.41111367     2.46480000     2.71168431
H      1.58666105     2.27685997     1.74394427
O     -1.27588895     2.40726621     2.55151617
H     -1.38542577     2.40109060     1.79974464
H     -0.48647994     2.31833845     2.86779419
O     -2.80279093     0.06093545     2.72499162
H     -2.20069423    -0.69046392     2.70244851
H     -2.74577488     0.18284534     1.72194015
O     -1.43129756    -2.45961386     2.64744749
H     -1.43866862    -2.29378821     1.68642242
H     -0.57516901    -2.40578525     3.02803338
O      1.43056378    -2.37875852     2.79630693
H      1.93919026    -1.53545015     2.69226688
H      1.21998769    -2.68765540     1.83317165
36
water clusters ood_size frame=289
O      2.84338444     0.06245952     0.09894023
H      2.31404572     0.88712050     0.15172933
H      2.85847357    -0.07918698     1.09770966
O      1.38599347     2.52492547    -0.05458495
H      1.40712255     2.50947433     0.88167467
H      2.32238497     2.37003556    -0.45827627
O     -1.35881650     2.37238631     0.08044762
H     -1.99335387     1.47520156    -0.17522059
H     -1.09368440     2.49487832     0.94265765
O     -2.77402912    -0.22411126     0.02729408
H     -2.66396133    -0.12067342     0.89308092
H     -1.83204025     0.13539365    -0.32716465
O     -1.38953855    -2.36682835    -0.14804997
H     -0.61782043    -2.47474131    -0.00095782
H     -1.48785517    -2.31117780     0.95430632
O      1.49692134    -2.42475201     0.03530664
H      1.28237509    -2.54227152     0.85000494
H      2.35226729    -2.38951633    -0.05480443
O      2.61819779     0.07302878     2.78810498
H      2.80440018     0.02259733     1.80188598
H      3.60721273    -0.00769824     3.09027687
O      1.25991305     2.40976898     2.67411000
H      0.48150724     2.49632935     2.72778225
H      1.73966641     2.54033685     1.76244132
O     -1.49550801     2.38933493     2.73049422
H     -1.28779541     2.22730323     1.81185423
H     -0.44480314     2.45875155     2.85808693
O     -2.73512389     0.05429002     2.80117491
H     -2.24969423    -0.84103670     2.72461749
H     -2.94034770     0.24943264     1.76132564
O     -1.43752542    -2.45342170     2.62517880
H     -1.49170034    -2.39048971     1.73009097
H     -0.38335710    -2.30156464     3.04032698
O      1.39287116    -2.50444764     2.59597106
H      1.90969660    -1.48872173     2.84995252
H      1.30436876    -2.48900599     1.82055312
36
water clusters ood_size frame=290
O      2.72454065    -0.03928845    -0.03304706
H      2.21375285     0.80328008     0.05230111
H      2.87650728    -0.16169568     0.92598146
O      1.40875777     2.35562595     0.04515488
H      1.37528744     2.38777700     0.98723250
H      2.29302464     2.40759903    -0.28172316
O     -1.42653681     2.34512801    -0.04309393
H     -1.89332926     1.51453316     0.02563824
H     -1.23393930     2.60020476     1.01497259
O     -2.72169490    -0.02099106    -0.00027803
H     -2.76545312     0.03764057     0.97079968
H     -1.84364254     0.04880748    -0.33351160
O     -1.22956804    -2.45517475    -0.03826784
H     -0.38283119    -2.35254267     0.04580954
H     -1.67047257    -2.38097442     0.89953631
O      1.32475170    -2.31459849    -0.01161133
H      1.41096985    -2.35518797     0.98234728
H      2.31997085    -2.43685180    -0.24372340
O      2.73341092    -0.07629029     2.75742117
H      2.83453376    -0.04755969     1.76117425
H      3.67553897    -0.00636537     2.96852025
O      1.46640121     2.38699382     2.73392269
H      0.48671991     2.32400113     2.76660489
H      1.63620001     2.47026256     1.72770033
O     -1.39149993     2.35801665     2.73392219
H     -1.38485540     2.42075867     1.74328378
H     -0.52913671     2.47273830     2.95924780
O     -2.77804478    -0.06592760     2.70278584
H     -2.37344994    -0.84049341     2.72783930
H     -2.83499407     0.24296152     1.83940391
O     -1.42581976    -2.39280147     2.69957675
H     -1.40781753    -2.40086676     1.80415560
H     -0.45465979    -2.39080820     2.99001922
O      1.35928978    -2.39602970     2.75676496
H      1.88534354    -1.58629030     2.68034251
H      1.18529242    -2.59944251     1.79642737
36
water clusters ood_size frame=291
O      2.72756678     0.01473740     0.00404984
H      2.28016031     0.94823073     0.02296195
H      2.88586720    -0.34376642     0.92160726
O      1.31723342     2.41683399     0.08347859
H      1.34314988     2.43920311     0.97566146
H      2.39595172     2.37832829    -0.10956469
O     -1.32743542     2.39923194    -0.16467877
H     -1.83792517     1.63963539     0.00840132
H     -1.27961050     2.61887447     0.87851054
O     -2.80756982     0.07807510    -0.04228991
H     -2.68071068     0.02697623     0.99886235
H     -1.84992140    -0.09292360    -0.29378894
O     -1.45134016    -2.37948395     0.06004542
H     -0.42906560    -2.46085328    -0.04359652
H     -1.70876974    -2.37050506     1.06379326
O      1.42660925    -2.46172322    -0.01210620
H      1.27971604    -2.40919027     1.08654340
H      2.31681447    -2.41985639    -0.16184554
O      2.74093343    -0.06178184     2.67762015
H      2.69631564     0.08936052     1.78018094
H      3.57431365    -0.07305159     3.03245303
O      1.29470712     2.46912553     2.74445527
H      0.54300909     2.45080823     2.72840338
H      1.50314237     2.19359330     1.73533304
O     -1.33123149     2.38468478     2.68803060
H     -1.36009574     2.43152102     1.69816549
H     -0.48877312     2.50891103     2.93588516
O     -2.76301707    -0.02255414     2.80412464
H     -2.23856037    -0.93849303     2.85451875
H     -2.79943186     0.13140188     1.76366752
O     -1.41268634    -2.36676334     2.71631434
H     -1.27045936    -2.46675158     1.68287560
H     -0.50694586    -2.31451197     3.11605019
O      1.39511722    -2.32079223     2.77774875
H      1.90369361    -1.49471169     2.71129030
H      1.29234581    -2.56180559     1.90064711
36
water clusters ood_size frame=292
O      2.69503151    -0.08465239     0.04092576
H      2.32737284     0.75409350     0.11399184
H      2.91171320    -0.28236365     0.79590952
O      1.42807245     2.17405323    -0.20719168
H      1.34868460     2.44348500     0.96673191
H      2.23198044     2.47241453    -0.15365889
O     -1.31088534     2.48606198     0.03400742
H     -1.78596704     1.68111633     0.02117908
H     -1.48817766     2.60909322     1.16401836
O     -3.05384867    -0.05944782     0.04779064
H     -2.60451553    -0.04706857     0.89968632
H     -1.97457195     0.10168543    -0.29061199
O     -1.37783022    -2.40839534    -0.02498220
H     -0.41617648    -2.36428843     0.04126293
H     -1.46531593    -2.65260657     0.94843856
O      1.37067130    -2.41804986     0.00899436
H      1.31872114    -2.38632642     0.91568674
H      2.22563129    -2.36609495    -0.29693487
O      2.72293085    -0.10520041     2.55063180
H      2.85551523     0.00338786     1.73608395
H      3.57170515    -0.02040452     2.87307519
O      1.19377904     2.38153320     2.66316831
H      0.24687228     2.22557839     2.74010441
H      1.62768506     2.47429510     1.79130261
O     -1.36411889     2.44637703     2.62466982
H     -1.21288803     2.36140910     1.57535765
H     -0.48043655     2.47487623     2.84491220
O     -2.80949030    -0.06543383     2.67444589
H     -2.25141298    -0.67794255     2.73181629
H     -3.05475363     0.36555176     1.77069759
O     -1.42837337    -2.41399143     2.65797424
H     -1.29830167    -2.34541444     1.79596994
H     -0.37011703    -2.61039572     2.97526430
O      1.28810737    -2.24578940     2.85555017
H      1.82129732    -1.58886122     2.71754898
H      1.28440835    -2.56512768     1.95194545
36
water clusters ood_size frame=293
O      2.71097620    -0.00322566     0.03533006
H      2.28612776     0.88057341    -0.01931185
H      2.87336066    -0.16907945     0.92842885
O      1.36773501     2.44882388    -0.10270783
H      1.37814984     2.45650927     0.95336659
H      2.30594597     2.46592191    -0.33067308
O     -1.33065664     2.35653047     0.02888669
H     -1.84310950     1.52022468    -0.02120146
H     -1.30962563     2.56218984     0.99591828
O     -2.74166927     0.07056310    -0.08447506
H     -2.77343637     0.00351778     0.96935778
H     -1.86003526    -0.04220988    -0.21495394
O     -1.42360843    -2.37676843    -0.08571608
H     -0.45288481    -2.41643630     0.01284840
H     -1.56210570    -2.34922672     0.87580858
O      1.47546685    -2.41494963    -0.01272136
H      1.39871350    -2.39493371     1.01967343
H      2.27907343    -2.47096551    -0.22715077
O      2.77862063    -0.07727000     2.73351530
H      2.75634167    -0.05044440     1.77866438
H      3.66030612    -0.00970990     2.96392337
O      1.45845800     2.39607243     2.68469735
H      0.46164994     2.42184130     2.77200505
H      1.64210216     2.35057271     1.73299212
O     -1.36764268     2.44273534     2.74926152
H     -1.37271827     2.43149934     1.74201881
H     -0.41956727     2.35430751     2.95977560
O     -2.79290608    -0.05472527     2.81491953
H     -2.23528573    -0.83758953     2.81885706
H     -2.87000902     0.15178300     1.78709062
O     -1.45367877    -2.35481584     2.73210914
H     -1.34917197    -2.41094966     1.77879018
H     -0.44708318    -2.40738051     2.99533377
O      1.35738890    -2.39811643     2.72252436
H      1.88288264    -1.53462608     2.69448240
H      1.24194386    -2.53940270     1.78171204
36
water clusters ood_size frame=294
O      2.68211309     0.04046941    -0.02110880
H      2.41978414     0.94460576    -0.02276125
H      2.89116043    -0.24430222     0.77820065
O      1.30577334     2.28852086     0.09819086
H      1.34566010     2.39229000     0.93469130
H      2.26143462     2.33277621    -0.19150703
O     -1.35689539     2.43609805    -0.00900206
H     -1.94549785     1.51521918    -0.04643942
H     -1.18794576     2.51264609     0.96598490
O     -2.78415826    -0.05354870     0.04040267
H     -2.77178225    -0.01911455     0.93482783
H     -1.66403739     0.09609474    -0.30736408
O     -1.32970579    -2.36718585     0.03012372
H     -0.39031646    -2.41589455     0.03155560
H     -1.69899522    -2.36304448     0.86501095
O      1.33396326    -2.44461090     0.00265993
H      1.37830790    -2.33895860     1.01623440
H      2.27925539    -2.46916762    -0.39061474
O      2.73106556    -0.02126960     2.63658428
H      2.69930543    -0.02588523     1.75713376
H      3.66052625    -0.05229824     2.96561391
O      1.31925098     2.32092658     2.67169440
H      0.39094712     2.29400782     2.84417355
H      1.67297251     2.34813301     1.77921006
O     -1.48413073     2.40099153     2.76147604
H     -1.30919251     2.33515523     1.76404286
H     -0.53867725     2.39728165     3.01721626
O     -2.76900918     0.12267681     2.62581582
H     -2.25949105    -0.90289712     2.72698845
H     -2.86477188     0.16010545     1.84423609
O     -1.43191258    -2.35112094     2.75529542
H     -1.38987678    -2.39787813     1.71867538
H     -0.52496470    -2.25701114     2.97300404
O      1.32827814    -2.31046633     2.69602126
H      1.83994036    -1.58911950     2.75841121
H      1.12933608    -2.77931114     1.76366796
36
water clusters ood_size frame=295
O      2.77909377    -0.02516301     0.02710303
H      2.41439293     0.85053153    -0.01915656
H      2.94014849    -0.14467747     0.92364266
O      1.29938376     2.20915419    -0.09103329
H      1.43888947     2.37098062     1.02243649
H      2.45168572     2.57275550    -0.29051711
O     -1.38250851     2.53434947    -0.15756783
H     -1.89016850     1.66390666    -0.13711759
H     -1.31855277     2.65024623     0.90756614
O     -2.75558255    -0.08384669    -0.09215832
H     -2.81880618     0.07389557     0.83131809
H     -1.84590228     0.10533907    -0.36564626
O     -1.39081531    -2.42973958    -0.00471005
H     -0.47246457    -2.34536509    -0.10082222
H     -1.44785396    -2.38046680     0.98484102
O      1.40687064    -2.39277535    -0.11569976
H      1.40036459    -2.48773062     0.99924582
H      2.34834084    -2.44058220    -0.31409689
O      2.74096258     0.09355345     2.65707910
H      2.82141813     0.10088366     1.63903123
H      3.68723510    -0.03155512     3.00626221
O      1.32304340     2.27896415     2.63295631
H      0.48345213     2.47492658     2.66718045
H      1.53089321     2.29918239     1.77975817
O     -1.34657056     2.29410861     2.69881666
H     -1.51771212     2.46305337     1.71889732
H     -0.32479194     2.19590670     3.02756157
O     -2.77298316     0.01412967     2.67680679
H     -2.43109521    -0.87218043     2.62870406
H     -2.87101315     0.30994463     1.84559104
O     -1.29065797    -2.34419501     2.77579688
H     -1.34948374    -2.48181784     1.68484912
H     -0.36427840    -2.34662985     2.93717881
O      1.21572689    -2.44326879     2.77249177
H      1.96579656    -1.72944326     2.77992342
H      1.18495850    -2.39326074     1.90034033
36
water clusters ood_size frame=296
O      2.81050282     0.00014397    -0.05014579
H      2.30211824     0.84830184    -0.05395941
H      2.93826156    -0.20198847     0.90451705
O      1.49656083     2.35117475     0.01585776
H      1.42948366     2.40100672     0.96678701
H      2.24824736     2.32502676    -0.21031412
O     -1.34084314     2.37978928    -0.08085518
H     -1.80339279     1.55738605    -0.00250349
H     -1.25391076     2.61872102     1.02563860
O     -2.70520773    -0.00716103     0.00231758
H     -2.74953745    -0.02289042     0.92270204
H     -1.84153232    -0.04178105    -0.19725726
O     -1.33728570    -2.50975579     0.00425337
H     -0.41744440    -2.41680170     0.01343802
H     -1.63542716    -2.41515705     1.05004678
O      1.37657392    -2.43187278     0.01314879
H      1.36142794    -2.45143614     0.96844307
H      2.28594994    -2.35174174    -0.17844384
O      2.70088128    -0.04652737     2.69586090
H      2.77961145    -0.09422274     1.79383479
H      3.66584136     0.01122623     3.01040439
O      1.40165776     2.35410553     2.74472293
H      0.45477033     2.43599845     2.73258622
H      1.56860191     2.38309728     1.78093026
O     -1.40929322     2.37927161     2.74052634
H     -1.36938949     2.40330085     1.87766864
H     -0.46208477     2.42518103     2.91714607
O     -2.71831687    -0.04099975     2.71928815
H     -2.30526137    -0.78377762     2.67369731
H     -2.90822867     0.20106856     1.87487941
O     -1.38928849    -2.40049848     2.82154551
H     -1.31401001    -2.44953507     1.72816840
H     -0.31287088    -2.50111506     2.96476669
O      1.31542757    -2.39416747     2.71046751
H      1.86404723    -1.45316070     2.71090392
H      1.23995271    -2.56214351     1.75126451
36
water clusters ood_size frame=297
O      2.81830637    -0.06017041     0.05146540
H      2.42435698     0.80559801     0.12745048
H      2.79255594    -0.06802652     0.95640774
O      1.32413677     2.40174587    -0.06122342
H      1.33473927     2.42953922     0.96875716
H      2.26821636     2.29553766    -0.31890462
O     -1.36729650     2.27521575     0.12378783
H     -1.87611005     1.51371054    -0.01241757
H     -1.20567636     2.55065498     0.90397470
O     -2.68393940     0.10346370    -0.04604778
H     -2.74125450    -0.14648999     0.92992928
H     -1.60801557    -0.05879340    -0.39232984
O     -1.47543379    -2.24599449     0.13053458
H     -0.37856773    -2.39106017    -0.06630379
H     -1.68048370    -2.27784667     0.85420044
O      1.56449670    -2.38210353    -0.02308546
H      1.42190092    -2.28918860     1.03645257
H      2.30743878    -2.32776765    -0.13839833
O      2.76297426     0.00596738     2.69829311
H      2.78957155    -0.06266772     1.80420170
H      3.64145428     0.08073106     2.88180192
O      1.41247517     2.26211629     2.74767213
H      0.37380058     2.46964191     2.71761467
H      1.61686768     2.47717000     1.75332049
O     -1.42945897     2.44849301     2.62944154
H     -1.42355443     2.37396934     1.67592913
H     -0.43406408     2.43991658     2.96588101
O     -2.69594707    -0.04161887     2.67877389
H     -2.34948200    -0.76434413     2.79080501
H     -2.96978242     0.04894128     1.93078609
O     -1.46831290    -2.45334976     2.65986158
H     -1.36880014    -2.40590508     1.75701423
H     -0.52411740    -2.43086360     2.90796073
O      1.37562470    -2.32478034     2.71406577
H      1.81007874    -1.46861568     2.75920206
H      1.25467150    -2.75176354     1.85284601
36
water clusters ood_size frame=298
O      2.93154382    -0.02812539    -0.08734545
H      2.43434976     1.01333800     0.01605381
H      3.01973469    -0.15114066     0.94491950
O      1.21343299     2.52970028     0.06853238
H      1.39717861     2.37375766     1.09915822
H      2.23215128     2.46114653    -0.26847280
O     -1.32813897     2.39948306    -0.06652440
H     -1.80424587     1.70492987    -0.11187607
H     -1.24215481     2.50322011     0.91404338
O     -2.75544957     0.05166951     0.03639101
H     -2.81031672     0.02906433     0.93269212
H     -1.79733884    -0.01267331     0.00238102
O     -1.45357574    -2.47303118    -0.10621829
H     -0.48381045    -2.55959260    -0.20260569
H     -1.57649816    -2.49684676     0.99624552
O      1.42030261    -2.44277643    -0.07105771
H      1.20875133    -2.35641960     0.89476658
H      2.37214605    -2.43246814    -0.37290604
O      2.70780319    -0.01692704     2.67558398
H      2.86220020    -0.05036912     1.84870626
H      3.54473974    -0.07805288     2.96354495
O      1.26611473     2.32500547     2.73998184
H      0.34765501     2.40667146     2.64204004
H      1.48859094     2.39776584     1.74162866
O     -1.49712572     2.34102163     2.71826164
H     -1.55448399     2.36537549     1.82585096
H     -0.46413355     2.28114861     2.85828905
O     -2.74758730     0.01117155     2.69288315
H     -2.27089821    -0.76408876     2.72426083
H     -3.00010240     0.30792430     1.76435088
O     -1.27982013    -2.44215282     2.75683229
H     -1.27841059    -2.52166522     1.71953477
H     -0.37730006    -2.52169720     3.03432715
O      1.44190701    -2.52573874     2.57375835
H      1.98304512    -1.44942514     2.53161560
H      1.16226538    -2.63830995     1.67905221
36
water clusters ood_size frame=299
O      2.72496165    -0.06582258     0.03693319
H      2.26804519     0.70457671    -0.05743595
H      2.88726338    -0.20283335     0.95931756
O      1.48350737     2.30691372    -0.02614459
H      1.45710171     2.38628194     1.02687576
H      2.29283926     2.43832309    -0.27089863
O     -1.45411806     2.36225073    -0.11920380
H     -1.87711094     1.61668000     0.02628141
H     -1.22200315     2.54905315     0.92018193
O     -2.77298500     0.02427125    -0.04155225
H     -2.77833811    -0.08852330     0.94138419
H     -1.74319219     0.04623862    -0.29373551
O     -1.38890444    -2.47649951    -0.06439202
H     -0.44976617    -2.27655529    -0.03536273
H     -1.62326713    -2.35561859     0.93087683
O      1.34849250    -2.37086198    -0.04465998
H      1.40829257    -2.39715647     0.87929826
H      2.27001132    -2.35030022    -0.22097437
O      2.79352175    -0.04051213     2.72060712
H      2.82026998     0.00076495     1.68864757
H      3.79801681    -0.13421998     2.96908168
O      1.36823208     2.35942284     2.63286152
H      0.51285190     2.44311828     2.72056963
H      1.61918786     2.30921190     1.76425728
O     -1.44388798     2.46085265     2.71879498
H     -1.33930177     2.38707557     1.83320537
H     -0.44978524     2.37609172     2.95738457
O     -2.82578774     0.04440555     2.72839941
H     -2.23018036    -0.83942541     2.65946765
H     -2.90633828     0.13553446     1.80507282
O     -1.42521780    -2.30871792     2.73074326
H     -1.36905704    -2.48054423     1.72679861
H     -0.46140901    -2.36865155     2.88316517
O      1.42628963    -2.50749433     2.70279079
H      1.95043754    -1.53297117     2.75605665
H      1.18009269    -2.68538017     1.87060804
