6
water clusters train frame=0
O      1.30817117    -0.00998523     0.03206607
H      0.41467301     0.00630795    -0.06211485
H      1.60977405    -0.01640678     0.96545118
O     -1.37336562    -0.00069095    -0.03050069
H     -0.45775638    -0.00035202     0.05484722
H     -1.69926164    -0.11722610    -0.84323497
6
water clusters train frame=1
O      1.48152616     0.04182410     0.02431645
H      0.39858007    -0.02115340    -0.07379352
H      1.65956312    -0.01144723     0.80636437
O     -1.41084873    -0.03320125    -0.03950934
H     -0.29897276     0.06997533    -0.19826052
H     -1.58743357     0.06908897    -0.84137466
6
water clusters train frame=2
O      1.41832623     0.10190642    -0.09546428
H      0.38806004     0.08056017     0.08523449
H      1.68067385    -0.03510736     0.84024400
O     -1.22760597    -0.05624657    -0.03016454
H     -0.28921204     0.00820524    -0.05184847
H     -1.54670866    -0.01596454    -0.81446961
6
water clusters train frame=3
O      1.37546501    -0.03414462     0.10483321
H      0.47623993     0.00690240    -0.00437789
H      1.56398842    -0.02389305     0.87342603
O     -1.34286507     0.05173135    -0.01334635
H     -0.44330312     0.01662291    -0.00020383
H     -1.59711719     0.02125228    -0.90895388
6
water clusters train frame=4
O      1.42069246    -0.06235370     0.04564951
H      0.29584289     0.00712139    -0.01773067
H      1.64365261    -0.01187904     0.94168809
O     -1.49366781    -0.03351170    -0.05098273
H     -0.40024640     0.01149468    -0.02919895
H     -1.65374415    -0.04614050    -0.93611668
6
water clusters train frame=5
O      1.41464058     0.05725988    -0.01453206
H      0.33154262    -0.07218029     0.05762669
H      1.52914408    -0.03205186     0.72965668
O     -1.30916866     0.00062803    -0.05770162
H     -0.44431718     0.04706679    -0.01261230
H     -1.60551578    -0.00357864    -1.03020001
6
water clusters train frame=6
O      1.30514834     0.03952310    -0.02496948
H      0.46907913     0.04607900    -0.02176909
H      1.59092574    -0.02497136     0.99368917
O     -1.38080161    -0.01233303     0.03540723
H     -0.46339228    -0.02630379    -0.02584645
H     -1.62379941    -0.05548267    -0.95520634
6
water clusters train frame=7
O      1.38616495    -0.06525573    -0.06696087
H      0.44664265    -0.06634627    -0.01537964
H      1.66677056     0.00356366     1.03856503
O     -1.38859235    -0.09809441     0.02039601
H     -0.41139486     0.04591291    -0.09244447
H     -1.63026926     0.06676814    -0.91494656
6
water clusters train frame=8
O      1.37099819     0.07334986    -0.14249984
H      0.38262798     0.08061182    -0.01260227
H      1.75308036     0.00623924     0.85498543
O     -1.26594454     0.01013083    -0.01827166
H     -0.43066997    -0.06503118    -0.03139846
H     -1.55501299    -0.05800244    -0.94089212
6
water clusters train frame=9
O      1.34737075     0.00113456     0.02150250
H      0.44420388    -0.01450229    -0.03129675
H      1.63170904     0.03631396     0.95278317
O     -1.26754293     0.00531885    -0.02231599
H     -0.43443509     0.04119057    -0.03905266
H     -1.62694851    -0.06686612    -0.93649701
6
water clusters train frame=10
O      1.42350729     0.06328857     0.03799904
H      0.48656532    -0.04426943     0.09870720
H      1.73023556    -0.10222107     0.85727711
O     -1.33422270     0.04629551     0.08252147
H     -0.41170843    -0.06234341    -0.04400821
H     -1.52898827     0.00023597    -1.03415884
6
water clusters train frame=11
O      1.36564956     0.05788564    -0.00021094
H      0.47488947     0.04084538     0.00180102
H      1.53517998     0.00388544     0.98661800
O     -1.42983162     0.08874832     0.16223688
H     -0.35739928     0.03220079     0.00601896
H     -1.69017015     0.12859911    -0.95626041
6
water clusters train frame=12
O      1.35140828     0.07452140     0.04236237
H      0.40012083     0.01162917     0.01471336
H      1.65463348    -0.07618489     0.88745582
O     -1.43676954     0.00797228    -0.02832981
H     -0.40438099     0.07830280     0.02277298
H     -1.65624971    -0.00205463    -0.91055716
6
water clusters train frame=13
O      1.27161446     0.07422419     0.01509606
H      0.47285094     0.07593920     0.01706713
H      1.70359779     0.03315505     0.86376578
O     -1.37685015    -0.00298118     0.05085045
H     -0.31118256    -0.08881958     0.00051643
H     -1.66150980     0.01483951    -0.87163435
6
water clusters train frame=14
O      1.51605173    -0.13462235     0.01421664
H      0.53524136    -0.06420854     0.06049610
H      1.66132866     0.12106625     0.96453674
O     -1.56563597    -0.08595049     0.00856881
H     -0.44854167    -0.03374846     0.09877615
H     -1.71455737     0.01130693    -0.84631475
6
water clusters train frame=15
O      1.30212479     0.00685233    -0.01041148
H      0.39511833     0.08791328    -0.02786976
H      1.64919228    -0.03631263     0.88634427
O     -1.37315302     0.04539587    -0.00639413
H     -0.39811509    -0.00641901     0.04440123
H     -1.61143012     0.00974060    -0.89740590
6
water clusters train frame=16
O      1.41014088     0.00693670    -0.02394498
H      0.43208838    -0.02373339     0.07913676
H      1.61674830     0.05172550     0.89275633
O     -1.34755501    -0.09578910    -0.04029558
H     -0.34981371     0.01445379    -0.13108993
H     -1.64906656    -0.01367785    -0.97272672
6
water clusters train frame=17
O      1.25181150    -0.11457062     0.13033533
H      0.38173316     0.06019346     0.04827106
H      1.54912767     0.00954034     0.93169842
O     -1.47310301     0.00993687    -0.00134748
H     -0.40882056    -0.03671262    -0.04511405
H     -1.62527892    -0.08124867    -0.85250351
6
water clusters train frame=18
O      1.39117207    -0.00295793    -0.01497605
H      0.43491759    -0.00098078    -0.02225003
H      1.64381030     0.06875117     1.00625628
O     -1.35573170    -0.01519195     0.13226643
H     -0.40867146     0.01113155    -0.03399928
H     -1.61483116    -0.02097814    -0.95335007
6
water clusters train frame=19
O      1.37466216     0.00960957     0.00402300
H      0.42530093    -0.11899674     0.02947270
H      1.56836723    -0.01216421     0.82774625
O     -1.35409880     0.01822903    -0.01927700
H     -0.45329876    -0.04007677     0.08699211
H     -1.66152354    -0.07500680    -0.97428844
6
water clusters train frame=20
O      1.38231503    -0.03061082    -0.00989350
H      0.44308483     0.10389070     0.15111223
H      1.57188727    -0.02341439     0.90336008
O     -1.29988434     0.12631271     0.07505538
H     -0.44279338     0.01851916    -0.08232932
H     -1.62757058     0.00510360    -0.98897419
6
water clusters train frame=21
O      1.38344789     0.04708005    -0.01739903
H      0.43465775    -0.00731212    -0.07987147
H      1.64855628    -0.05113605     0.85709340
O     -1.36714021     0.00442818     0.01771584
H     -0.40907143     0.04724127     0.01111445
H     -1.57866372     0.02124018    -0.97786389
6
water clusters train frame=22
O      1.38964232     0.02902985     0.01942705
H      0.42349971    -0.00686559     0.09442636
H      1.64837667    -0.05205636     1.00030900
O     -1.35818213     0.00996535    -0.00334978
H     -0.56940026    -0.15393920    -0.03594052
H     -1.54814920     0.03329480    -1.00902181
6
water clusters train frame=23
O      1.44560284     0.12429257    -0.10082979
H      0.36239727    -0.12157970    -0.08706922
H      1.45673555    -0.07867070     0.94013127
O     -1.36873914     0.06179794     0.07242989
H     -0.45786118    -0.17527548     0.01000245
H     -1.61952900    -0.08661759    -0.84785469
6
water clusters train frame=24
O      1.35390930     0.01923013     0.01853059
H      0.48319779    -0.07746535    -0.06129437
H      1.59879897     0.04024236     0.98693030
O     -1.39463902    -0.00461090     0.06445787
H     -0.43918868     0.00564155     0.03707715
H     -1.59114475    -0.01166543    -0.89789250
6
water clusters train frame=25
O      1.37226752    -0.04567398    -0.06814057
H      0.44448192     0.10821119     0.00541798
H      1.61603410     0.03542098     0.88525081
O     -1.38378447     0.02887699     0.00594238
H     -0.36846258     0.01405311    -0.01902540
H     -1.58346873     0.05262103    -0.82339200
6
water clusters train frame=26
O      1.28283164    -0.05004824     0.18093443
H      0.43370342     0.13314021     0.02746378
H      1.57318013    -0.06769868     0.87569112
O     -1.29409954    -0.13425135    -0.07523283
H     -0.39040045     0.01206502    -0.04639155
H     -1.66609744    -0.06886010    -0.96450564
6
water clusters train frame=27
O      1.45282089     0.01587075     0.01392879
H      0.45603714    -0.00361296    -0.08853561
H      1.67713411    -0.07230425     0.91427491
O     -1.35356750    -0.07252512     0.01924389
H     -0.45596305    -0.04515707    -0.00760016
H     -1.64683132    -0.03856914    -0.94385365
6
water clusters train frame=28
O      1.41778599    -0.03523351    -0.08160992
H      0.39944084    -0.02896075    -0.10148924
H      1.61950047    -0.03207770     0.94279523
O     -1.38357095    -0.00591142    -0.05071318
H     -0.37685828     0.03362269     0.03116726
H     -1.59284206     0.10734403    -0.94929818
6
water clusters train frame=29
O      1.31604345     0.06803451    -0.05696933
H      0.38222069     0.05715763     0.06467119
H      1.73485168    -0.16779170     0.81456397
O     -1.47024669    -0.12244726     0.06872150
H     -0.35928138    -0.16059120     0.03403446
H     -1.52854279     0.09444597    -0.87936857
6
water clusters train frame=30
O      1.32729051     0.00913895    -0.03592230
H      0.41546950     0.02232378     0.02723111
H      1.62606301    -0.03157908     1.00126327
O     -1.39641549    -0.00378445     0.04374047
H     -0.42118164    -0.00515558     0.00512047
H     -1.66053842    -0.00243134    -0.93139409
6
water clusters train frame=31
O      1.36782389    -0.01661110    -0.01763629
H      0.50366035    -0.03788555    -0.04239272
H      1.61717332     0.05710033     0.91282601
O     -1.33913731     0.00115739     0.07029868
H     -0.42130810    -0.11152434    -0.11347186
H     -1.53082386    -0.06514473    -0.83324928
6
water clusters train frame=32
O      1.43240582    -0.12309365     0.09191912
H      0.36443735     0.04686674    -0.04343308
H      1.51625996    -0.00414274     0.89912331
O     -1.38579929    -0.00516039     0.11294533
H     -0.50634385     0.09224492    -0.01058697
H     -1.72094759     0.05851706    -0.86226170
6
water clusters train frame=33
O      1.41071719    -0.01631130     0.05783154
H      0.45941596    -0.01793201     0.01974467
H      1.53154255    -0.00723879     0.90110681
O     -1.39045296     0.04182059     0.00226294
H     -0.43143055     0.10246909     0.08182314
H     -1.69366047     0.02775135    -0.94340905
6
water clusters train frame=34
O      1.32988289    -0.05714896    -0.07335523
H      0.40765804     0.00706475     0.03411898
H      1.70636024     0.03112724     0.98653696
O     -1.27609709    -0.03054584    -0.04125191
H     -0.40196707    -0.01619674     0.03126710
H     -1.51792406    -0.08985807    -0.83143169
6
water clusters train frame=35
O      1.40142523    -0.04782401    -0.05805658
H      0.29446772    -0.06526197    -0.04469608
H      1.61868426    -0.04028566     0.90881357
O     -1.22102509     0.01345729     0.06032632
H     -0.35804450     0.07465256     0.04023721
H     -1.63951005    -0.16870650    -0.94105159
6
water clusters train frame=36
O      1.41928454     0.02396252    -0.01560810
H      0.47090555     0.08784520    -0.03354341
H      1.60673821     0.02338131     0.83118624
O     -1.38797959     0.00168212     0.03185914
H     -0.49446485     0.06148361    -0.00762726
H     -1.59489824    -0.04074317    -0.89759143
6
water clusters train frame=37
O      1.39768603     0.10201993     0.02485225
H      0.49200231    -0.07789886     0.09703945
H      1.68628875    -0.01033362     0.87729949
O     -1.34393075    -0.02476464    -0.02553962
H     -0.37709576     0.01138440    -0.05003490
H     -1.64308748     0.03944037    -0.86176303
6
water clusters train frame=38
O      1.56595320    -0.04633995     0.00113308
H      0.47518232    -0.06495248    -0.14460618
H      1.68899961     0.06726312     0.84599309
O     -1.19069464     0.05665889    -0.01974573
H     -0.37969387    -0.01153186    -0.00067419
H     -1.43115051    -0.11144885    -0.76190834
6
water clusters train frame=39
O      1.33024917    -0.02660633     0.05692596
H      0.39133954    -0.01873045     0.03735614
H      1.60255227     0.02383393     0.89927513
O     -1.32394489    -0.01228178     0.00564492
H     -0.39999967    -0.05456606     0.04535634
H     -1.64605354    -0.03885468    -0.86661149
6
water clusters train frame=40
O      1.35568226    -0.07507874    -0.04607809
H      0.38826984    -0.00280708     0.01534255
H      1.55426320     0.02856621     0.99057588
O     -1.25618000     0.04564064    -0.02724587
H     -0.40652911     0.01810228    -0.06892558
H     -1.69445256    -0.09496460    -0.88153064
6
water clusters train frame=41
O      1.38089422     0.07134342     0.00244688
H      0.43937514     0.16698256     0.00749139
H      1.64169746     0.02718969     0.88405899
O     -1.43723471    -0.01934422    -0.00497118
H     -0.33749166     0.03304014     0.04747859
H     -1.63417271     0.08514737    -0.81872423
6
water clusters train frame=42
O      1.38112603    -0.04798398    -0.00495652
H      0.38693724     0.00483074     0.03515118
H      1.61045208     0.05124305     0.92735236
O     -1.45275956    -0.01362089    -0.02216348
H     -0.43022555    -0.02919380     0.02773116
H     -1.58829332     0.04076735    -0.92813571
6
water clusters train frame=43
O      1.33497917    -0.09402217    -0.02417442
H      0.39509330    -0.05164514    -0.07442303
H      1.61589005     0.03017239     1.01318742
O     -1.34716798     0.01001980    -0.00579785
H     -0.51270852     0.05696315     0.06255886
H     -1.70130359     0.03037542    -0.87974796
6
water clusters train frame=44
O      1.45428622     0.02732785    -0.00215416
H      0.36056534     0.06127529    -0.01065321
H      1.51967593     0.00483596     0.80126249
O     -1.39660363    -0.14504071    -0.00760563
H     -0.59812703    -0.09739781     0.08972508
H     -1.76170541     0.10877768    -0.96807662
6
water clusters train frame=45
O      1.35773179     0.01176549     0.00151562
H      0.46962577     0.00270000    -0.04562405
H      1.65115054     0.01063194     0.90266976
O     -1.38702469     0.02614794    -0.02208919
H     -0.35546634     0.05772744    -0.02649885
H     -1.61322193     0.04075520    -0.89975980
6
water clusters train frame=46
O      1.42822202    -0.02002574    -0.07742198
H      0.51362781    -0.06276826    -0.08247209
H      1.73900331     0.00169605     0.98557968
O     -1.38418425     0.01133346    -0.02876501
H     -0.42441770     0.13496505     0.01026027
H     -1.56225511    -0.01401337    -0.89576400
6
water clusters train frame=47
O      1.40756766    -0.01897181     0.06939034
H      0.40088297    -0.03821317    -0.06210163
H      1.59121392     0.10421737     1.02972453
O     -1.42740983     0.02869511     0.10703411
H     -0.52254875    -0.20469764    -0.13502543
H     -1.51003485    -0.23842688    -0.86722652
6
water clusters train frame=48
O      1.34964732    -0.01049809    -0.01901341
H      0.33493072     0.02364553     0.03101700
H      1.53092875     0.01328708     0.95241756
O     -1.39578506    -0.03564257    -0.04576028
H     -0.43475097    -0.00564860    -0.07664352
H     -1.57765361    -0.01298163    -0.83234961
6
water clusters train frame=49
O      1.38650214    -0.06002423     0.00495726
H      0.46324460     0.05749944    -0.05982005
H      1.64902103    -0.05549155     0.89253178
O     -1.42102111     0.03526853     0.05648665
H     -0.40296854     0.06516103    -0.02164471
H     -1.58999461    -0.04395370    -0.80729604
6
water clusters train frame=50
O      1.49562313    -0.11189256     0.01736427
H      0.50978051    -0.02380935    -0.04295259
H      1.51472053     0.08725793     0.97013987
O     -1.39239767    -0.09357588    -0.00331899
H     -0.57357383     0.06469713     0.14742559
H     -1.60586002     0.03865164    -0.99393321
6
water clusters train frame=51
O      1.38160990    -0.06901993    -0.01785880
H      0.43341025     0.01381582     0.09412621
H      1.57673859     0.05481331     0.98852481
O     -1.34361667    -0.00842487     0.05840297
H     -0.43880600     0.06293234    -0.03516162
H     -1.73034547     0.01241164    -0.88693406
6
water clusters train frame=52
O      1.44650167    -0.05255696     0.02235848
H      0.43913692    -0.02691874    -0.01794066
H      1.67877609     0.02980887     0.90996489
O     -1.31398983    -0.08763760     0.00906692
H     -0.34893720     0.11681003     0.09426008
H     -1.56829780    -0.05692138    -0.89123271
6
water clusters train frame=53
O      1.30986762    -0.03928112    -0.20997935
H      0.46631120    -0.08295086    -0.05814254
H      1.60837586     0.19137769     0.89161925
O     -1.43877134     0.06126708    -0.01383963
H     -0.23834787    -0.06386666     0.02339865
H     -1.68148402     0.08976497    -0.95697459
6
water clusters train frame=54
O      1.42472065     0.00289297    -0.04017252
H      0.41327437     0.02352560     0.00114410
H      1.62582570     0.03549026     0.92333650
O     -1.32654877     0.01411457    -0.05152105
H     -0.45146166    -0.00247692    -0.03173228
H     -1.60569777    -0.02653391    -0.90750111
6
water clusters train frame=55
O      1.45389334    -0.01189032    -0.11405841
H      0.49303538    -0.09831900    -0.06612483
H      1.67619417    -0.14321087     0.91458183
O     -1.29166549     0.04692719    -0.03781439
H     -0.40518346    -0.01418239     0.03595122
H     -1.59987836    -0.02203699    -0.88871341
6
water clusters train frame=56
O      1.37272361     0.09819332    -0.05780332
H      0.38591846     0.18904075    -0.14756103
H      1.74643467    -0.02114268     1.05453161
O     -1.41400284     0.08450676    -0.03874137
H     -0.40726207    -0.00262393    -0.02723330
H     -1.73874150     0.10810328    -0.82577031
6
water clusters train frame=57
O      1.31992358     0.06408260     0.04305299
H      0.42031930     0.02349293    -0.00189671
H      1.63528897     0.07884928     0.92990786
O     -1.41377980    -0.03605846     0.02156378
H     -0.42474676    -0.01086751    -0.05588642
H     -1.64347657    -0.00218333    -0.94105791
6
water clusters train frame=58
O      1.38157684     0.04415146    -0.08254264
H      0.45919461    -0.05660544    -0.00945005
H      1.51961352     0.05412208     1.02387003
O     -1.40434986    -0.00517376     0.01975020
H     -0.43050075    -0.00742496     0.00353253
H     -1.59089050     0.00153818    -0.91213639
6
water clusters train frame=59
O      1.56613611     0.07532930     0.01154650
H      0.41460688     0.09525453    -0.10850200
H      1.75465365    -0.04659110     0.89636650
O     -1.25415547     0.08967607     0.05465364
H     -0.41110680    -0.02799944     0.09191157
H     -1.45780955    -0.04940595    -0.90954546
6
water clusters train frame=60
O      1.35313484     0.02464999     0.07450788
H      0.43022736    -0.04713169     0.02819058
H      1.57044027    -0.08343949     0.95168230
O     -1.42404466    -0.03774538     0.04032591
H     -0.41844239     0.02336946    -0.02429491
H     -1.71560462     0.01356538    -0.93801025
6
water clusters train frame=61
O      1.36460643    -0.09295591    -0.00288580
H      0.36254202    -0.10463755     0.01296008
H      1.65647820     0.04351227     0.99415910
O     -1.33035287    -0.02509265     0.09755983
H     -0.29589966     0.02812127    -0.06263916
H     -1.61938569     0.04457532    -0.90359578
6
water clusters train frame=62
O      1.34738892    -0.07462495     0.01801848
H      0.45703390    -0.01297476    -0.00551115
H      1.53767242    -0.03472914     0.89267949
O     -1.39754175     0.02272276    -0.03947347
H     -0.44998965    -0.12147787     0.06845570
H     -1.70398231    -0.07763977    -1.00647363
6
water clusters train frame=63
O      1.36379461     0.02521942     0.00762795
H      0.50109383    -0.04415755    -0.00888403
H      1.68719650    -0.01279058     0.89812641
O     -1.43230209     0.01873368     0.04759296
H     -0.40278936     0.06703989    -0.02689575
H     -1.63211949    -0.08397954    -0.85534416
6
water clusters train frame=64
O      1.42968014    -0.04982703    -0.00600062
H      0.46513028    -0.02800309    -0.00486091
H      1.55265359    -0.02450057     0.82311687
O     -1.35554404    -0.07824862     0.07643997
H     -0.41876179     0.10334708    -0.06217235
H     -1.60564230    -0.02805587    -0.90009742
6
water clusters train frame=65
O      1.48783914    -0.09627579     0.01067034
H      0.25417669     0.09140106    -0.02568239
H      1.58904119    -0.08745019     0.87994149
O     -1.31822739     0.10107120    -0.11767893
H     -0.44994755     0.07866880    -0.08007885
H     -1.62765807     0.04627529    -0.83302246
6
water clusters train frame=66
O      1.51780140     0.00917877    -0.01181143
H      0.48089214    -0.06419987     0.00564447
H      1.62911861    -0.01386904     0.98736043
O     -1.30517942     0.02474863    -0.01995177
H     -0.43941166    -0.01933616    -0.04402172
H     -1.60270606    -0.00519382    -0.96593962
6
water clusters train frame=67
O      1.32387328    -0.00683926    -0.00610595
H      0.44315706    -0.06451509     0.07814057
H      1.67235556    -0.02253534     0.94287509
O     -1.40729555    -0.06544207    -0.09297078
H     -0.36157572    -0.13965468     0.09427771
H     -1.68478834     0.04117387    -0.84508604
6
water clusters train frame=68
O      1.40296299    -0.12928623    -0.06975497
H      0.26888948     0.07191302     0.18980904
H      1.68954389    -0.02618254     0.86609227
O     -1.28507212    -0.02144633    -0.00257414
H     -0.38268327    -0.06463814    -0.09505357
H     -1.71020507     0.07753718    -0.93717295
6
water clusters train frame=69
O      1.31398752    -0.06105156    -0.01069609
H      0.39080801     0.00130419     0.05507688
H      1.59403794    -0.03182965     0.92729473
O     -1.39595659    -0.08073970    -0.03986541
H     -0.45228349     0.01297901    -0.00368872
H     -1.66921718     0.00741759    -0.89599657
6
water clusters train frame=70
O      1.37380950     0.03436764     0.03152324
H      0.46455409     0.06821896    -0.01269948
H      1.70054664     0.01367345     0.90668431
O     -1.45238835    -0.01089594     0.00617013
H     -0.42498084    -0.04960276    -0.03336052
H     -1.70851678    -0.04740206    -0.99024826
6
water clusters train frame=71
O      1.46896960     0.04516508     0.08388722
H      0.46920249    -0.10142609     0.00525521
H      1.60408954    -0.04850418     0.98756764
O     -1.34016631     0.05019687    -0.06791977
H     -0.43522248    -0.05853549     0.05552045
H     -1.70053798    -0.04745041    -1.02032830
6
water clusters train frame=72
O      1.39440677     0.02670532     0.02520872
H      0.47316672     0.03765771     0.02173458
H      1.67741074    -0.03712316     0.95954256
O     -1.35106084     0.06872690    -0.07905863
H     -0.39005795    -0.00304604    -0.07335148
H     -1.66185268     0.03077173    -0.90565067
6
water clusters train frame=73
O      1.32971955    -0.06932864    -0.07321928
H      0.42769018     0.02032109     0.00182835
H      1.62474848     0.01760224     0.80719746
O     -1.32339551     0.03565748    -0.01810727
H     -0.43691987     0.07611187    -0.00675337
H     -1.68368759     0.03977991    -0.86068131
6
water clusters train frame=74
O      1.39354472    -0.05758157     0.02852130
H      0.34232806     0.04778894    -0.00034323
H      1.57706694     0.03626312     1.02396426
O     -1.32371417    -0.15681349     0.08700752
H     -0.41771191    -0.01130905    -0.12794605
H     -1.59401741     0.08489124    -0.83858316
6
water clusters train frame=75
O      1.37531387     0.06248054    -0.00193264
H      0.42180042    -0.00344894    -0.02047058
H      1.66941359    -0.03346946     0.93630090
O     -1.37725446     0.00120945     0.05573554
H     -0.41909150     0.06568003     0.03342319
H     -1.61038172     0.04362471    -0.88191412
6
water clusters train frame=76
O      1.38781898    -0.04426183    -0.09151967
H      0.44698978     0.01408193    -0.03396569
H      1.64329487     0.06504509     1.03146742
O     -1.35857224     0.04290579     0.07990418
H     -0.51785475     0.01695737    -0.02561622
H     -1.55422497     0.12437639    -0.91033732
6
water clusters train frame=77
O      1.37038613    -0.02936398    -0.08509594
H      0.43912505    -0.07481716    -0.02246345
H      1.60252928     0.06296207     0.97433607
O     -1.49275314     0.01820352    -0.09085626
H     -0.32948626    -0.02867128     0.06591365
H     -1.70354099    -0.10161447    -0.98006555
6
water clusters train frame=78
O      1.40356201    -0.03789132     0.07549469
H      0.43973225     0.03296308     0.01436652
H      1.57760809     0.03541358     0.96259830
O     -1.33843722    -0.01161460    -0.08469526
H     -0.44968448     0.03619455     0.01489550
H     -1.65833443    -0.01510073    -0.91584640
6
water clusters train frame=79
O      1.38583496    -0.02672858    -0.02986790
H      0.42908484    -0.02355562    -0.03910221
H      1.60760904    -0.02292478     0.97216103
O     -1.40248637    -0.05014950    -0.13263432
H     -0.53273384     0.07827070     0.06146713
H     -1.66118991    -0.05668096    -1.01300295
6
water clusters train frame=80
O      1.45904872    -0.02963007     0.02754482
H      0.48876228    -0.14336218    -0.04852502
H      1.68173757     0.01328142     1.05516715
O     -1.40573057    -0.02507496     0.06900930
H     -0.35838272     0.09997370     0.17105457
H     -1.70658303    -0.00097376    -0.87035160
6
water clusters train frame=81
O      1.39524047     0.07394829    -0.00823387
H      0.46004316     0.06420501     0.04208102
H      1.66135633    -0.04198772     0.90778553
O     -1.32071250    -0.01574294    -0.07402489
H     -0.41625594     0.05657717    -0.02780935
H     -1.64678967    -0.02913686    -0.91195981
6
water clusters train frame=82
O      1.36595239     0.13499086     0.13933641
H      0.46754506     0.04821426     0.09606004
H      1.65561210     0.03996053     1.04474332
O     -1.33215538     0.15142557     0.04274667
H     -0.41301822     0.02553108     0.07545982
H     -1.56789651     0.07796074    -0.92320279
6
water clusters train frame=83
O      1.22803335    -0.14694606    -0.07228316
H      0.32769988     0.05233910     0.09926024
H      1.53444907    -0.03328635     0.93311744
O     -1.30008775     0.16631874     0.07147046
H     -0.42776306    -0.02717357     0.09223022
H     -1.65375573     0.00797793    -0.97798652
6
water clusters train frame=84
O      1.38440836     0.01131030    -0.03803909
H      0.37368722     0.01169840     0.02755484
H      1.58178587    -0.00863922     0.83775764
O     -1.40057340     0.01261167     0.00612479
H     -0.43930409    -0.05023209     0.02088533
H     -1.57821238    -0.02945161    -0.95028588
6
water clusters train frame=85
O      1.27177738     0.09626435     0.05024465
H      0.44168148     0.01041020    -0.02658395
H      1.67039234    -0.09331552     0.94110225
O     -1.35007071     0.00177159    -0.01726807
H     -0.35710920    -0.08390254     0.00001708
H     -1.64496660     0.01596008    -0.96721349
6
water clusters train frame=86
O      1.47716120    -0.09900316     0.08281113
H      0.45639200     0.03541867    -0.02268755
H      1.54007124     0.08215520     1.03432478
O     -1.49039293     0.01775049     0.06484853
H     -0.46291047     0.04060534    -0.01172084
H     -1.75913039    -0.06249945    -0.93432708
6
water clusters train frame=87
O      1.41994808     0.02907824    -0.03241035
H      0.41234864    -0.03168574     0.04329642
H      1.60530228    -0.01147953     0.96205382
O     -1.36311353     0.02459747    -0.05115988
H     -0.43408935    -0.08052414    -0.02024617
H     -1.50026832    -0.02418526    -0.96868697
6
water clusters train frame=88
O      1.35122412    -0.07468731     0.00406795
H      0.41898134    -0.04932068     0.03953192
H      1.66229695    -0.07376806     0.90572265
O     -1.42597386     0.04356820     0.14634762
H     -0.35582151     0.01013896     0.02696382
H     -1.64798359     0.01853419    -0.92562316
6
water clusters train frame=89
O      1.43837790     0.04220160     0.07832163
H      0.48370892     0.02675187     0.04317327
H      1.69258397     0.06770199     0.98823117
O     -1.51816196     0.03847128     0.00555847
H     -0.38917308     0.07361907     0.02854998
H     -1.60259996     0.09418121    -0.96458799
6
water clusters train frame=90
O      1.35181625    -0.01223406     0.06033507
H      0.44556908    -0.05238242    -0.03605580
H      1.61987305    -0.03234949     1.00632385
O     -1.42107129    -0.04252493     0.00007304
H     -0.46086170    -0.03853835    -0.01708931
H     -1.64418142     0.03923307    -0.87883220
6
water clusters train frame=91
O      1.27122560    -0.01809565    -0.00661862
H      0.32444653    -0.04856482     0.00274526
H      1.79169247    -0.01025352     0.96740143
O     -1.47063364     0.01635182    -0.04728448
H     -0.49196045     0.03901987    -0.03261309
H     -1.55916018     0.07604511    -0.97411510
6
water clusters train frame=92
O      1.50087855    -0.10211126    -0.07707855
H      0.41549816     0.11066905    -0.13452015
H      1.72763045    -0.05549339     1.00320817
O     -1.40611398     0.08610599    -0.05897930
H     -0.43929280    -0.06002712    -0.06494692
H     -1.58256394    -0.08375800    -0.94764417
6
water clusters train frame=93
O      1.40588159     0.00117222     0.01171357
H      0.39352011    -0.02505897    -0.00620563
H      1.62801713    -0.03194218     0.93432189
O     -1.40880608    -0.02948037    -0.02406575
H     -0.49103547    -0.08394738    -0.08206781
H     -1.67340252     0.01958198    -0.95430922
6
water clusters train frame=94
O      1.25490524     0.06978478    -0.01422669
H      0.36773696     0.05117911     0.07582079
H      1.72638303    -0.02862041     0.93511017
O     -1.41537941     0.10986899    -0.02434443
H     -0.38535998     0.09385253     0.00001343
H     -1.53631397    -0.04516105    -0.92596684
6
water clusters train frame=95
O      1.34353247    -0.02266256     0.05692593
H      0.39607137     0.08347735    -0.00357033
H      1.55835827     0.01218508     0.95503681
O     -1.49741714    -0.09020199    -0.05787402
H     -0.45855943    -0.00924427     0.06446536
H     -1.62234096    -0.01759420    -0.88929450
6
water clusters train frame=96
O      1.43589328    -0.02249852     0.00620008
H      0.39193232    -0.02361002    -0.00565172
H      1.63262950     0.01080833     0.98815217
O     -1.37088094    -0.00689496     0.05062103
H     -0.45326533    -0.03645509    -0.03921611
H     -1.60490874     0.04481369    -0.90483991
6
water clusters train frame=97
O      1.36833406     0.05119118    -0.00650056
H      0.40917776    -0.05009242     0.03101023
H      1.67745697     0.04800892     0.86433743
O     -1.46859882    -0.04690396     0.01645941
H     -0.44157366     0.04282329    -0.01422576
H     -1.54396995     0.04706132    -0.93299886
6
water clusters train frame=98
O      1.31896364    -0.03673671    -0.02588270
H      0.54096186    -0.04269187    -0.17360047
H      1.67655587     0.16216761     1.00456341
O     -1.50282680     0.01834563     0.08574455
H     -0.48550241    -0.11243709    -0.04376331
H     -1.58293932    -0.01191109    -0.89978891
6
water clusters train frame=99
O      1.37586368    -0.02593765     0.00819871
H      0.44052899     0.06950530    -0.06972045
H      1.60000132    -0.02978510     0.95195518
O     -1.31278626     0.04421794    -0.01525317
H     -0.37203978     0.04731716     0.05252622
H     -1.63704655     0.00187292    -0.95510947
6
water clusters train frame=100
O      1.43699723    -0.01079113     0.03644948
H      0.51392662    -0.06068908    -0.02642621
H      1.68856586    -0.04346375     0.74734530
O     -1.47635896     0.09318247     0.06914362
H     -0.46037148    -0.07273561     0.00350517
H     -1.67304954     0.04790243    -0.97564179
6
water clusters train frame=101
O      1.42120224    -0.01555193    -0.06887689
H      0.37616345     0.00394091    -0.05680165
H      1.60903874     0.26894617     0.91095011
O     -1.34334221     0.03419256    -0.13956236
H     -0.33781401     0.00592337    -0.01107025
H     -1.48734824     0.17916940    -0.97123985
6
water clusters train frame=102
O      1.39656774     0.00488217     0.00016954
H      0.43959189    -0.05895233     0.03489616
H      1.55987743    -0.02611657     0.88479111
O     -1.36378895    -0.02802689     0.05976293
H     -0.44124555    -0.03160731     0.06743969
H     -1.58929314     0.02245312    -0.91659079
6
water clusters train frame=103
O      1.31357027    -0.05499981    -0.00376327
H      0.36550500    -0.08160869     0.07872454
H      1.47895998     0.03182563     0.95583368
O     -1.53624745    -0.05809708     0.03701222
H     -0.48372702    -0.00990079    -0.00754406
H     -1.57548322     0.02351569    -0.94879026
6
water clusters train frame=104
O      1.40039745    -0.09269821    -0.03585902
H      0.52833660    -0.08040468     0.04125585
H      1.77555432     0.20985841     0.67172240
O     -1.34271523    -0.17832553     0.06609149
H     -0.50095417     0.09329574    -0.02839837
H     -1.50442045    -0.19567798    -0.94956961
6
water clusters train frame=105
O      1.34373202    -0.01849908    -0.05798481
H      0.45743195     0.02691841    -0.00565243
H      1.67882996     0.01371574     0.95849170
O     -1.32411504    -0.03531710     0.00715487
H     -0.47201304     0.00600951    -0.00614129
H     -1.58832659     0.03765203    -0.92980850
6
water clusters train frame=106
O      1.40768698    -0.07565427    -0.04557371
H      0.45977769     0.07211587     0.05998162
H      1.58935394     0.02057674     1.02473286
O     -1.46545692    -0.06277554     0.09419993
H     -0.39180536    -0.10694413    -0.08774396
H     -1.57440823     0.00450051    -0.98272873
6
water clusters train frame=107
O      1.37529221     0.10819229    -0.07791109
H      0.46091268    -0.07230849    -0.14988538
H      1.62900606     0.07712505     0.90563526
O     -1.34861623     0.10836076    -0.11347003
H     -0.38128425     0.15825957    -0.01038284
H     -1.77070348    -0.04603523    -0.91779499
6
water clusters train frame=108
O      1.42110469     0.02520850    -0.00302428
H      0.43316311     0.00304356     0.00776696
H      1.64523347    -0.01067806     0.92697264
O     -1.38132837     0.01067180    -0.06115371
H     -0.42854526    -0.04260197    -0.00965534
H     -1.63465841     0.01800084    -0.91029912
6
water clusters train frame=109
O      1.34799827    -0.07436711     0.17286679
H      0.42944436    -0.12344706    -0.01418173
H      1.56369149     0.06943320     0.88032063
O     -1.31209281     0.05480941    -0.07597317
H     -0.39368526     0.07880242     0.01640275
H     -1.57956518     0.01341589    -0.97883248
6
water clusters train frame=110
O      1.38224503    -0.11984102    -0.01980670
H      0.42675858    -0.10727502    -0.03984691
H      1.73268165    -0.09186650     0.86365300
O     -1.27910384     0.11158485     0.04452233
H     -0.41990907    -0.05075119     0.03178536
H     -1.64451409     0.22556823    -1.04861390
6
water clusters train frame=111
O      1.34147623     0.03038849    -0.00417275
H      0.49113970    -0.02116541     0.07213904
H      1.64040458    -0.03027460     0.94095697
O     -1.32755526    -0.00156603     0.04246553
H     -0.42144666     0.02076707    -0.00129783
H     -1.59904064     0.05169917    -0.88617533
6
water clusters train frame=112
O      1.31558624    -0.14663032    -0.10252978
H      0.43554314    -0.00128634     0.04050365
H      1.53324831     0.05781009     1.00876938
O     -1.43510074    -0.08143129     0.03235216
H     -0.35841479    -0.03969134    -0.09619933
H     -1.61771292    -0.01829034    -0.87298979
6
water clusters train frame=113
O      1.46742817    -0.00270238     0.05973845
H      0.48494304    -0.09980674    -0.10704483
H      1.70186341     0.04186658     0.96128813
O     -1.39293461    -0.08586933    -0.06518464
H     -0.54070352     0.02210316    -0.00964264
H     -1.71604745     0.01533367    -0.97646836
6
water clusters train frame=114
O      1.41297686    -0.00983116    -0.03851645
H      0.42314816    -0.00193371    -0.03012158
H      1.59394337    -0.03148931     0.90799796
O     -1.35585309     0.01249648     0.02594221
H     -0.39938851     0.05693853     0.00102616
H     -1.61795045    -0.01283608    -0.93765874
6
water clusters train frame=115
O      1.41398217    -0.03762160     0.03200129
H      0.38840258     0.02946129     0.03081552
H      1.56256726    -0.02503628     0.89667420
O     -1.35127371    -0.07179759    -0.03820041
H     -0.36504403     0.07358906     0.02009507
H     -1.51632163     0.02865397    -0.89284497
6
water clusters train frame=116
O      1.53085965    -0.13913617    -0.00235758
H      0.43920526    -0.07856127     0.06595215
H      1.74045831     0.02516054     1.00384064
O     -1.55986585    -0.07054072    -0.14491059
H     -0.60813648     0.02907199     0.04182590
H     -1.53569914     0.04876330    -1.04507273
6
water clusters train frame=117
O      1.33947849     0.01795719     0.04691916
H      0.37787821    -0.03422189     0.02233328
H      1.61047277    -0.05067505     0.97149245
O     -1.42565686    -0.01109779     0.01960615
H     -0.43725067     0.01027258     0.01671656
H     -1.59490130     0.06443883    -0.89949433
6
water clusters train frame=118
O      1.32349497    -0.13259483    -0.10444843
H      0.45199547    -0.04031491    -0.08353710
H      1.59489926    -0.03464788     0.85029369
O     -1.38860637    -0.02128202    -0.05714079
H     -0.46810051     0.00306360     0.04137828
H     -1.61219020    -0.02181748    -0.99720801
6
water clusters train frame=119
O      1.32008716     0.17338617     0.15943165
H      0.42432438     0.06302242    -0.10154100
H      1.55438709     0.11763503     0.89015517
O     -1.40018511     0.07093178     0.05095453
H     -0.42613338     0.04556701    -0.06783481
H     -1.70838489    -0.00985136    -1.01055144
6
water clusters train frame=120
O      1.36386327     0.00574422    -0.02474535
H      0.50237290     0.01167922    -0.02389485
H      1.56789763    -0.02055706     0.93911632
O     -1.37314292    -0.06355871    -0.04836756
H     -0.46263031    -0.00468176     0.03997103
H     -1.62125848     0.02797434    -0.96025237
6
water clusters train frame=121
O      1.25323827     0.06087573     0.02121200
H      0.39490760    -0.08642846     0.06609380
H      1.66217923    -0.02119157     1.05458454
O     -1.32674396    -0.03592337    -0.03039055
H     -0.48648762     0.05031684    -0.00368590
H     -1.63990819    -0.02993119    -0.82131326
6
water clusters train frame=122
O      1.48030988    -0.08119270    -0.08031079
H      0.30203877    -0.06151808    -0.00748473
H      1.79338055    -0.04488910     0.99553560
O     -1.51484508    -0.07708236    -0.02887573
H     -0.50120961    -0.06324427    -0.05476203
H     -1.48270486    -0.08175977    -1.00142225
6
water clusters train frame=123
O      1.31339349    -0.02184475     0.05760242
H      0.40963835    -0.03845551    -0.05106755
H      1.63093855     0.06603410     0.97911261
O     -1.38116905     0.00318338    -0.05200803
H     -0.41535512     0.12272824     0.02252044
H     -1.64455302    -0.01976228    -0.95983534
6
water clusters train frame=124
O      1.35519653     0.02487049    -0.01464418
H      0.36805767     0.02004028     0.02360581
H      1.65940727    -0.05685865     0.87900093
O     -1.42380062     0.08803320     0.09730631
H     -0.41788047    -0.02231284     0.10677940
H     -1.64666907     0.09318944    -0.92480189
6
water clusters train frame=125
O      1.36906118     0.01670431    -0.06764067
H      0.34093753    -0.09089983    -0.08934531
H      1.54843642    -0.02526035     0.95239465
O     -1.48801413     0.03585821     0.10935233
H     -0.33728387     0.03132192     0.06608226
H     -1.51812203     0.10169789    -0.95589211
6
water clusters train frame=126
O      1.32086509    -0.05078563    -0.00595438
H      0.41210877     0.03948455     0.01452647
H      1.57391628    -0.05272761     0.94773543
O     -1.39234794     0.01502403    -0.05350631
H     -0.41993744     0.03868122     0.02346385
H     -1.65881945     0.00239194    -0.92744985
6
water clusters train frame=127
O      1.36453058     0.05548627     0.00285285
H      0.46694545    -0.03593431     0.05291182
H      1.57303052     0.04943769     0.88685493
O     -1.40868584    -0.02120669     0.08012938
H     -0.48914615    -0.03971343     0.02527081
H     -1.62586046     0.02460728    -0.85364767
6
water clusters train frame=128
O      1.35124231    -0.12375340    -0.02018959
H      0.55590980    -0.01665243    -0.00108241
H      1.64486052     0.04501050     1.01724819
O     -1.32182608     0.13188014    -0.06550717
H     -0.37944384     0.03165397    -0.06793417
H     -1.66080946    -0.07033100    -0.93544479
6
water clusters train frame=129
O      1.42381108     0.02885895     0.00272654
H      0.41928888     0.01223689    -0.01541812
H      1.60941592     0.03561203     0.95028492
O     -1.37103968     0.01420081    -0.02877805
H     -0.41317470     0.07305861    -0.00638385
H     -1.60418929     0.02973026    -1.00223338
6
water clusters train frame=130
O      1.37957404    -0.00222257     0.02614469
H      0.36338421    -0.03189843    -0.07004467
H      1.66798810    -0.02393431     0.89493384
O     -1.49047936     0.07669358     0.00593469
H     -0.45474277    -0.10476185     0.02662729
H     -1.70897254     0.05330322    -0.88141733
6
water clusters train frame=131
O      1.41707830    -0.09240789     0.00056786
H      0.44265431    -0.10568579    -0.02687375
H      1.67359839    -0.00311098     0.82070956
O     -1.44341715    -0.10997234    -0.01184622
H     -0.54322793    -0.06166721    -0.12661436
H     -1.61103797     0.10829449    -1.04015963
6
water clusters train frame=132
O      1.36454349    -0.09507895    -0.02999979
H      0.34441134     0.02965114    -0.01936050
H      1.65709661    -0.04046520     0.96329346
O     -1.31543947     0.06852022     0.05703169
H     -0.43554888    -0.04629010    -0.02220905
H     -1.61283816     0.08593911    -0.91361628
6
water clusters train frame=133
O      1.35342952    -0.05221843     0.02110629
H      0.36145964     0.06103503     0.01523265
H      1.52821763     0.07474139     1.00142804
O     -1.32881876     0.03531195     0.07671209
H     -0.43637178    -0.00608989     0.05591377
H     -1.56479514     0.10960312    -0.89523195
6
water clusters train frame=134
O      1.38402250    -0.06487124     0.02392671
H      0.36100141    -0.05234485     0.01960565
H      1.66392188     0.06166545     0.88908177
O     -1.41914736    -0.08892031     0.04911640
H     -0.40871437     0.08117504    -0.05216697
H     -1.65688813     0.08504405    -0.89738651
6
water clusters train frame=135
O      1.33534037    -0.02278453     0.02055036
H      0.40095013    -0.05704257     0.05788610
H      1.65504143    -0.00968774     0.88671590
O     -1.33026156     0.05795061    -0.06280125
H     -0.37284835     0.10379376     0.00516963
H     -1.65575604     0.02501453    -0.92886416
6
water clusters train frame=136
O      1.38595210     0.12949260     0.06120083
H      0.49107138    -0.04751352     0.02276990
H      1.59137478     0.00623257     1.00987748
O     -1.22310506     0.02543737    -0.13254339
H     -0.47040872     0.08184563     0.04764005
H     -1.56334925    -0.03584895    -0.91523285
6
water clusters train frame=137
O      1.21159708     0.05017759    -0.04055956
H      0.30392423    -0.15209835     0.02633737
H      1.57531094     0.02078599     0.99892806
O     -1.57381112    -0.07868941    -0.07103906
H     -0.46884928    -0.04278904    -0.01566215
H     -1.51710637     0.09122480    -0.90476536
6
water clusters train frame=138
O      1.31396341    -0.03196658    -0.01376446
H      0.43989322     0.07130515    -0.02966500
H      1.61664114    -0.04734271     1.03756977
O     -1.31080926     0.08085634     0.00841197
H     -0.43086452     0.04880522    -0.03855270
H     -1.59308692     0.03574336    -0.96139857
6
water clusters train frame=139
O      1.42483941     0.03116722     0.00002973
H      0.35775596     0.03960189    -0.05482594
H      1.66489821     0.07382737     0.93917271
O     -1.46103882     0.04066265    -0.07320949
H     -0.47817173     0.06686113    -0.09672357
H     -1.62455441     0.06892276    -0.88679095
6
water clusters train frame=140
O      1.40009263    -0.10364562    -0.03715658
H      0.42805217     0.07364999     0.11487916
H      1.67643044     0.25631967     0.95280334
O     -1.29734369    -0.07869534    -0.01209615
H     -0.40779874    -0.02030197    -0.01140427
H     -1.65753805     0.00501813    -0.97810446
6
water clusters train frame=141
O      1.26912891     0.02689860     0.01514162
H      0.44727038     0.05986210     0.04711309
H      1.63207488     0.03518845     0.87778203
O     -1.41184229    -0.00777666    -0.04079637
H     -0.46181906     0.01835321    -0.03324671
H     -1.59515078    -0.04310657    -0.90503385
6
water clusters train frame=142
O      1.39818401     0.01698274    -0.00663190
H      0.48869150     0.03120848     0.09489990
H      1.62835331    -0.15648594     0.89969474
O     -1.35826840    -0.02482544     0.03368029
H     -0.25800159     0.07131611     0.01152734
H     -1.71394446    -0.01517388    -0.95516614
6
water clusters train frame=143
O      1.49442082     0.00647119    -0.05532750
H      0.27885039     0.03695683    -0.00759039
H      1.70571118    -0.03991244     0.97219295
O     -1.31707415    -0.10144544    -0.06312754
H     -0.50971613    -0.03927013     0.10497268
H     -1.71727722    -0.05606316    -0.87680666
6
water clusters train frame=144
O      1.37750152    -0.01132648    -0.02728512
H      0.43204787    -0.03136863    -0.02686994
H      1.66077074    -0.06142917     0.97743542
O     -1.33223455    -0.02253726    -0.02543728
H     -0.52925156     0.04754702     0.02550546
H     -1.69271129    -0.01336247    -0.91983732
6
water clusters train frame=145
O      1.39565075    -0.00004816    -0.09610850
H      0.38231520    -0.02724449     0.02514496
H      1.59525887    -0.00584608     0.89509776
O     -1.31413767     0.02328516     0.04610962
H     -0.38224061     0.04146169     0.04218867
H     -1.70379969    -0.01729356    -0.97593080
6
water clusters train frame=146
O      1.41246635    -0.01780636    -0.01247800
H      0.49303993    -0.03365563    -0.11048175
H      1.65476869     0.06165830     0.85456573
O     -1.28549120    -0.07423659    -0.02163603
H     -0.37005923    -0.02082048     0.15675719
H     -1.64183048    -0.06307408    -0.90431256
6
water clusters train frame=147
O      1.40423362    -0.08070792    -0.03692798
H      0.41612147    -0.00812300    -0.04211289
H      1.59092462     0.01720498     0.87607091
O     -1.36942920    -0.03448118     0.00535667
H     -0.41320756    -0.01293687     0.01121326
H     -1.64409677    -0.03859276    -0.90137149
6
water clusters train frame=148
O      1.29703018    -0.05310608    -0.04349415
H      0.42545952    -0.08210284    -0.05046439
H      1.59606349     0.00415035     0.94861083
O     -1.43284743    -0.06399580     0.01681440
H     -0.52166583    -0.01487162     0.03840584
H     -1.57293575     0.07818613    -0.85430124
6
water clusters train frame=149
O      1.29305582     0.10845001     0.00657966
H      0.53694863    -0.03656356     0.14009805
H      1.65653680     0.02375408     0.83982151
O     -1.31101382     0.12796561    -0.00504424
H     -0.28435942     0.06330856     0.07927172
H     -1.52094813     0.08425536    -0.92280212
6
water clusters train frame=150
O      1.35750500     0.01910290     0.04462833
H      0.36865731    -0.03139221    -0.05216862
H      1.61435740    -0.04038394     0.88029410
O     -1.32980535     0.03435442     0.01142919
H     -0.37450189     0.03339137    -0.01466864
H     -1.57494490     0.01194649    -0.92998055
6
water clusters train frame=151
O      1.43959797     0.10721233     0.03961377
H      0.41959780    -0.00871743    -0.02389030
H      1.63037015    -0.02432423     1.00309834
O     -1.41235318    -0.04436561     0.01140110
H     -0.51198633     0.00562148     0.05171798
H     -1.71011986     0.00275085    -0.80086385
6
water clusters train frame=152
O      1.37901373     0.09885561    -0.02967492
H      0.49601486    -0.10815745    -0.01431773
H      1.49358831     0.09029013     0.80030186
O     -1.38597691    -0.01131153     0.17753516
H     -0.51362101     0.08843528     0.07311614
H     -1.60597181    -0.10169680    -0.70821985
6
water clusters train frame=153
O      1.36277406    -0.07145042    -0.01638105
H      0.43090064     0.07070007     0.02382943
H      1.61198458    -0.02376877     0.94802364
O     -1.33064528     0.00072971    -0.03378555
H     -0.42639037    -0.03242617     0.03576975
H     -1.58953000    -0.04513601    -0.92394247
6
water clusters train frame=154
O      1.35066382    -0.03250504     0.06935254
H      0.51222664    -0.04426168    -0.03068505
H      1.70065610    -0.00750480     0.90687704
O     -1.31640678     0.06482534    -0.06885162
H     -0.47482939     0.06655231     0.05195446
H     -1.53822762    -0.03191073    -0.87405365
6
water clusters train frame=155
O      1.45865845    -0.05496744     0.09271786
H      0.46273131    -0.07001266    -0.03798841
H      1.52283686     0.10776530     0.96599713
O     -1.45963001    -0.03715706    -0.10223321
H     -0.39453881     0.03225820     0.08136588
H     -1.65542884     0.03160380    -1.00668650
6
water clusters train frame=156
O      1.32447037    -0.08891988    -0.02351204
H      0.39023288     0.04295963     0.02765821
H      1.62644982     0.01721300     0.91744261
O     -1.40347112    -0.03835053     0.00516745
H     -0.36508549    -0.08204992     0.02254163
H     -1.53923761     0.04470719    -0.88558556
6
water clusters train frame=157
O      1.35320743    -0.12025930     0.14124461
H      0.37006240    -0.00656456     0.02736125
H      1.70067518     0.01911896     0.91738199
O     -1.27584755    -0.03097852    -0.03087691
H     -0.38835931    -0.08280013    -0.10138233
H     -1.61247241     0.08017543    -0.86736740
6
water clusters train frame=158
O      1.44817585     0.00605196    -0.05440665
H      0.42161266    -0.05435479    -0.07615831
H      1.55689612    -0.02624374     0.95530450
O     -1.30685684     0.07661208     0.10492547
H     -0.52585250    -0.10964931    -0.04743363
H     -1.55449408     0.04384874    -0.90131856
6
water clusters train frame=159
O      1.34922177    -0.08323676    -0.00244866
H      0.43532472    -0.08243078     0.07648168
H      1.63976691     0.01018716     0.98745355
O     -1.40336044     0.07159475     0.02426744
H     -0.44260734    -0.02538408    -0.05408400
H     -1.56962704    -0.01199848    -0.92389816
6
water clusters train frame=160
O      1.36776296    -0.06726729    -0.00915018
H      0.39496033    -0.01854481    -0.00860969
H      1.62771419     0.01677757     0.93697179
O     -1.32849290    -0.03675331     0.00059646
H     -0.45830149     0.03798827     0.04626395
H     -1.61066595     0.01177091    -0.94099727
6
water clusters train frame=161
O      1.32250562     0.04445816    -0.06730377
H      0.28484796     0.00869629     0.06928186
H      1.77733533    -0.06680859     0.87435549
O     -1.45395451     0.09985475     0.06433219
H     -0.58794032     0.13594251    -0.02660498
H     -1.67878430    -0.01730955    -0.91097746
6
water clusters train frame=162
O      1.31931334     0.01258833    -0.04106060
H      0.44357630     0.00475595     0.02874692
H      1.64751151    -0.02592625     0.88666555
O     -1.31919058    -0.07568053    -0.00837143
H     -0.45180082     0.01424759     0.00258203
H     -1.59910196     0.06434490    -0.92631166
6
water clusters train frame=163
O      1.29649834     0.08105849    -0.00048626
H      0.39428455     0.01471482     0.10432329
H      1.62639010    -0.07770324     0.96742629
O     -1.30133160     0.03641155     0.01688992
H     -0.48008542     0.11821590    -0.07916722
H     -1.54759178     0.03254493    -0.84061158
6
water clusters train frame=164
O      1.53306033    -0.03493174     0.01089762
H      0.53733318    -0.09560757     0.03629879
H      1.52949380    -0.07932506     0.92701584
O     -1.36717039     0.16279082     0.06719629
H     -0.39833840     0.02336116    -0.11539758
H     -1.66727674     0.01505092    -0.83676292
6
water clusters train frame=165
O      1.36405256    -0.00223521     0.07106012
H      0.44606333    -0.04296840     0.07068743
H      1.61858568    -0.02018820     0.96659419
O     -1.40216955     0.00389310    -0.03582100
H     -0.42860967     0.00734171    -0.01072498
H     -1.68682640    -0.00898347    -0.89564805
6
water clusters train frame=166
O      1.43504079     0.03794264     0.02511361
H      0.40628695    -0.14504421     0.04917119
H      1.63550275    -0.01889188     0.92554754
O     -1.42115556     0.00619596     0.08784066
H     -0.40308250     0.02711267    -0.00074507
H     -1.43849398    -0.03630478    -0.93408826
6
water clusters train frame=167
O      1.37466635    -0.15198134     0.09573773
H      0.42078635    -0.10270045    -0.10791847
H      1.57758998     0.01599356     1.05764529
O     -1.32762560    -0.10866005     0.02346817
H     -0.30564690    -0.06965635     0.04387478
H     -1.66063515    -0.05343420    -0.98749313
6
water clusters train frame=168
O      1.41976086    -0.02880511     0.00373956
H      0.45336420    -0.05262115    -0.09585396
H      1.63707618     0.06776135     0.94391234
O     -1.41674621     0.02281471    -0.04521088
H     -0.44756656    -0.01856143    -0.00632187
H     -1.57762332    -0.07471547    -0.97013744
6
water clusters train frame=169
O      1.44684369    -0.01043599     0.05572691
H      0.52499599     0.01943316     0.01226758
H      1.65689161     0.06170456     0.85979090
O     -1.34053125     0.00671426    -0.07229928
H     -0.29109641     0.06727955     0.03061660
H     -1.62928467    -0.01895411    -0.91215165
6
water clusters train frame=170
O      1.42984548     0.07695525    -0.10088824
H      0.50601839     0.07022057     0.12936441
H      1.78493985    -0.05336982     0.93956190
O     -1.43949887    -0.03118510    -0.07043717
H     -0.37106539    -0.00388562     0.01834624
H     -1.53226215    -0.08554954    -0.88505980
6
water clusters train frame=171
O      1.38970478    -0.04533288    -0.01226912
H      0.44782465     0.02294614     0.05630737
H      1.58510062    -0.02188176     1.01168640
O     -1.45847243    -0.04378165     0.03779042
H     -0.48474664     0.00716051    -0.02708064
H     -1.61765111     0.01185628    -0.87593108
6
water clusters train frame=172
O      1.44564959     0.05143191     0.03068447
H      0.47030677     0.03399417    -0.04918509
H      1.58643935    -0.07676465     1.00865345
O     -1.35713333    -0.04581563    -0.03438003
H     -0.43760019    -0.03697560    -0.00139140
H     -1.68722966    -0.07251758    -0.92309193
6
water clusters train frame=173
O      1.48926338     0.15128457     0.12573109
H      0.42038425    -0.13264655     0.03605071
H      1.47748274     0.03206846     1.04663895
O     -1.41075328     0.02027304    -0.08177936
H     -0.58662671    -0.04419219     0.01350249
H     -1.65370658     0.01493853    -1.06579593
6
water clusters train frame=174
O      1.39387741    -0.00530757    -0.00193351
H      0.44388680    -0.01488371    -0.03076412
H      1.57589576    -0.02324028     0.94273789
O     -1.30519899    -0.02416428    -0.02825652
H     -0.49623724     0.00878278     0.05393538
H     -1.61009397     0.01539265    -0.91230375
6
water clusters train frame=175
O      1.40375025     0.04787254     0.13818280
H      0.43019986    -0.05002964    -0.01571280
H      1.66905012    -0.02778608     0.89294735
O     -1.48026541    -0.10118068     0.01489866
H     -0.42370681     0.07193505    -0.00487748
H     -1.64222892    -0.01397311    -0.97024751
6
water clusters train frame=176
O      1.39912198    -0.01752926     0.00453697
H      0.47627856    -0.06650207    -0.04359558
H      1.57497591     0.02731886     0.96652939
O     -1.45590769    -0.03090744    -0.00880046
H     -0.48922730    -0.05201519    -0.03163662
H     -1.69257143    -0.09986421    -0.93268274
6
water clusters train frame=177
O      1.38585520    -0.05150111    -0.04285220
H      0.49748067     0.01834879    -0.00012387
H      1.64777223    -0.01902318     0.89348798
O     -1.30231840    -0.03242080     0.00569193
H     -0.47347130     0.01019154    -0.03744099
H     -1.63601472     0.00236384    -0.92006559
6
water clusters train frame=178
O      1.45263065     0.08013172     0.05964468
H      0.45686187    -0.02622274     0.02771895
H      1.57494463     0.00622505     0.91198557
O     -1.33722167    -0.07704679    -0.07005949
H     -0.52444491    -0.04778664    -0.07390497
H     -1.69426442    -0.02337567    -1.05277188
6
water clusters train frame=179
O      1.43980684     0.09629885    -0.04433652
H      0.30794708    -0.03561454     0.02163317
H      1.69667376    -0.02262147     1.00403861
O     -1.34233485    -0.01303928     0.10731260
H     -0.49610680    -0.04631467    -0.01899971
H     -1.60718312    -0.04976932    -0.94162538
6
water clusters train frame=180
O      1.37734213     0.00462642    -0.02547911
H      0.39401455     0.04744077    -0.02368672
H      1.63700960    -0.01686640     0.83105825
O     -1.35505884    -0.01977780     0.01345899
H     -0.48340896    -0.03362100     0.06077726
H     -1.65795700    -0.02253200    -0.90218016
6
water clusters train frame=181
O      1.38405699     0.06582816    -0.01581407
H      0.45076918    -0.07930542    -0.04849931
H      1.50810140    -0.01368691     0.99568561
O     -1.33807625     0.03024214    -0.02111248
H     -0.43303779     0.03313951     0.02472554
H     -1.70076988    -0.04303652    -0.89495324
6
water clusters train frame=182
O      1.31973739    -0.14167071     0.05383672
H      0.54322355     0.00060039    -0.11580304
H      1.63874846     0.01514686     0.99280054
O     -1.39969266     0.00441145     0.03114459
H     -0.43230040    -0.02219463     0.03171632
H     -1.58014000     0.15113124    -0.73128667
6
water clusters train frame=183
O      1.37826673    -0.03031044     0.03042594
H      0.41143696     0.00066406     0.01043809
H      1.60439538    -0.03597788     0.97205376
O     -1.36470439     0.00063647     0.06550841
H     -0.38031045    -0.00585411     0.01035956
H     -1.56528158     0.03194145    -0.96134614
6
water clusters train frame=184
O      1.38637129    -0.03657796     0.04251379
H      0.38635983     0.11017297    -0.00235298
H      1.63834584    -0.04256121     0.97974572
O     -1.42575215    -0.01014689    -0.09986777
H     -0.52811754     0.01818184     0.08105456
H     -1.63846384     0.08300296    -0.89961975
6
water clusters train frame=185
O      1.40278113    -0.12126229     0.03362645
H      0.36666462    -0.12643644     0.10755931
H      1.64096711    -0.05049172     0.96024979
O     -1.40718894    -0.06321375    -0.10120747
H     -0.32236746    -0.06532880    -0.11649075
H     -1.58859260    -0.08293418    -0.86410311
6
water clusters train frame=186
O      1.35276727     0.00273058    -0.00728239
H      0.41917809     0.01687701     0.07595760
H      1.61135690    -0.05067976     0.83924114
O     -1.32818064     0.02763157     0.00306264
H     -0.39070936     0.01161528     0.02905796
H     -1.59879442    -0.00390555    -1.01161745
6
water clusters train frame=187
O      1.38396104    -0.02028478    -0.02843304
H      0.49210010    -0.07340994     0.04028910
H      1.52121573    -0.05282108     0.92844899
O     -1.33731944    -0.15263046    -0.02203348
H     -0.38477540     0.02444687     0.14893954
H     -1.64990246     0.03331975    -0.84166353
6
water clusters train frame=188
O      1.46713403     0.06765005     0.06027943
H      0.42349366    -0.02247557    -0.21287567
H      1.53720325     0.02454512     0.93653231
O     -1.43841380     0.00196600     0.01442001
H     -0.47003757    -0.05377342     0.07674609
H     -1.60939152     0.08730396    -0.97746196
6
water clusters train frame=189
O      1.34526202     0.02747609    -0.01831551
H      0.47177257    -0.02130214    -0.00037212
H      1.62152439     0.01387152     0.91034611
O     -1.36230985    -0.00409502    -0.02756647
H     -0.36834955     0.02948581     0.01538786
H     -1.61560487     0.00885675    -0.95533943
6
water clusters train frame=190
O      1.34758662    -0.03000908     0.01690815
H      0.45372694     0.07575929    -0.05878867
H      1.57443979    -0.08594148     0.94378134
O     -1.40751631    -0.09815754     0.05690276
H     -0.35946510     0.04585181     0.06626707
H     -1.70788151     0.01526279    -0.92604437
6
water clusters train frame=191
O      1.34131795     0.04761327     0.02283985
H      0.42239746    -0.03828906     0.06792740
H      1.52763862    -0.06089365     0.97004045
O     -1.62242079    -0.02834540     0.08861154
H     -0.48803184     0.00055654    -0.34190585
H     -1.70808147    -0.04186401    -1.06197012
6
water clusters train frame=192
O      1.42207661     0.00197247    -0.02795669
H      0.44023665    -0.07771178    -0.00537254
H      1.61548953     0.03748427     0.88048233
O     -1.37237392     0.02662749    -0.03666594
H     -0.43155267     0.06312951     0.01474586
H     -1.54464180    -0.07058468    -0.88289237
6
water clusters train frame=193
O      1.32262722     0.00161817    -0.05577404
H      0.41465226    -0.00078398     0.09723412
H      1.67727464     0.03479509     0.95590145
O     -1.32332117     0.02054977    -0.06139076
H     -0.41205394    -0.01742968    -0.02746441
H     -1.60595622     0.04761415    -0.88250428
6
water clusters train frame=194
O      1.38496043    -0.03063196     0.02091693
H      0.46273177    -0.07345050     0.09747008
H      1.73046539    -0.02289549     0.80008212
O     -1.41815394    -0.21590306    -0.05475076
H     -0.41726613    -0.12612218    -0.10430124
H     -1.74938669    -0.02136117    -0.96497850
6
water clusters train frame=195
O      1.33476598     0.11910353     0.00507319
H      0.35952945     0.02305642     0.00830446
H      1.57090717     0.10242723     0.98817814
O     -1.32608485     0.08431417    -0.01107209
H     -0.41974462     0.01439131    -0.03722911
H     -1.68027823     0.04008282    -0.88874381
6
water clusters train frame=196
O      1.32122865     0.01128901    -0.04183590
H      0.49037230     0.02173353     0.09038276
H      1.57175652     0.07132879     1.08309834
O     -1.31545433    -0.03095771     0.07546287
H     -0.48282023    -0.05254512     0.05462394
H     -1.58882116     0.02685727    -0.98200277
6
water clusters train frame=197
O      1.31501120     0.09358940    -0.00774907
H      0.54958908    -0.00981211     0.02965718
H      1.68899564    -0.10275277     0.94884255
O     -1.48151700     0.07992457     0.01429591
H     -0.35524415    -0.08967994    -0.04573538
H     -1.62660399    -0.07109800    -0.87330820
6
water clusters train frame=198
O      1.39010273     0.04976660    -0.05013471
H      0.41426770    -0.04498036     0.07664836
H      1.66559538     0.01553529     0.89928038
O     -1.35452746     0.01067123     0.02375223
H     -0.42494610     0.05694757     0.05568436
H     -1.59034430     0.02306021    -0.95484614
6
water clusters train frame=199
O      1.51918832    -0.01642310     0.09095546
H      0.33767170     0.08760632     0.03262675
H      1.62327888    -0.04229835     1.02084929
O     -1.42937829     0.07549006    -0.04847197
H     -0.52294583    -0.01237558    -0.05388453
H     -1.56400857    -0.04145771    -0.96662208
6
water clusters train frame=200
O      1.25956870    -0.09320150    -0.03937599
H      0.47858471    -0.02585712     0.02958963
H      1.49551555     0.02598870     0.99285324
O     -1.32489520    -0.16926193     0.04794544
H     -0.47706193     0.05145894    -0.05829922
H     -1.59944445    -0.12237659    -0.86266881
6
water clusters train frame=201
O      1.40815974    -0.00079260     0.00800465
H      0.41604020     0.04612967     0.01300660
H      1.70475424    -0.01918458     0.89616745
O     -1.41291741    -0.04511279    -0.07517275
H     -0.37805470    -0.01139006     0.01407589
H     -1.65688690    -0.03056853    -0.93422843
6
water clusters train frame=202
O      1.44585627    -0.03951619    -0.03412148
H      0.44877296    -0.01043231    -0.02980640
H      1.67824818    -0.06951887     0.94076827
O     -1.31161561    -0.03410948     0.00571600
H     -0.49355727    -0.11691615     0.03246293
H     -1.62500814    -0.03418359    -0.98234965
6
water clusters train frame=203
O      1.41010115     0.08782661    -0.06812894
H      0.48431321     0.04941579    -0.05333934
H      1.49496304     0.05159132     0.98509571
O     -1.36918397    -0.00211579    -0.08877020
H     -0.40629533    -0.18137349    -0.09001024
H     -1.69138811    -0.04801659    -0.97465216
6
water clusters train frame=204
O      1.38161210    -0.00294588     0.02118501
H      0.42599660     0.10506383     0.03905048
H      1.64184159    -0.05269189     0.91132233
O     -1.35046691    -0.03063161     0.05306749
H     -0.46125851     0.03780858    -0.00443138
H     -1.59291893     0.05844410    -0.96544430
6
water clusters train frame=205
O      1.37950804     0.04926572    -0.06045294
H      0.48270516     0.03994828     0.07136403
H      1.58366802     0.00412935     0.86106109
O     -1.44505896     0.03885025    -0.07637564
H     -0.29651276    -0.01168272    -0.03564702
H     -1.65973991    -0.00009010    -0.89091647
6
water clusters train frame=206
O      1.42213934     0.14611542     0.03050820
H      0.40687244    -0.03650946     0.05289367
H      1.60143211    -0.11779132     0.91357062
O     -1.37494969     0.04428996     0.05864679
H     -0.37643394    -0.04273926    -0.09054180
H     -1.63405143    -0.10489961    -1.00215004
6
water clusters train frame=207
O      1.35447855    -0.00721346     0.00050001
H      0.41801022    -0.01927666    -0.01615204
H      1.62507897     0.10234201     0.88679338
O     -1.40677422     0.03564747    -0.03762458
H     -0.37132513    -0.04394666     0.02705446
H     -1.65636010    -0.05893372    -0.98545348
6
water clusters train frame=208
O      1.41382645    -0.03224675    -0.02088408
H      0.46543894     0.06504971     0.09151687
H      1.64217631     0.02431542     0.79853292
O     -1.39790619    -0.02180164    -0.03744450
H     -0.41392936     0.03327424    -0.03269447
H     -1.52724060     0.03493666    -0.92021803
6
water clusters train frame=209
O      1.29938919     0.06735517    -0.06080333
H      0.30134217     0.11330790     0.11777336
H      1.51794958    -0.04419867     0.95033855
O     -1.39416546     0.05754809    -0.07060395
H     -0.52217463     0.05775942     0.08991366
H     -1.58472901    -0.00749790    -0.92798326
6
water clusters train frame=210
O      1.36919551    -0.03316920     0.05018504
H      0.40239699     0.01893533     0.05632186
H      1.54084575     0.05851324     0.88106987
O     -1.39855288     0.05611457     0.00757325
H     -0.38503824    -0.02240179    -0.02882378
H     -1.66359707     0.02369753    -0.89063121
6
water clusters train frame=211
O      1.35340454     0.06222330    -0.13195039
H      0.47109149     0.07344158    -0.04768109
H      1.63630342    -0.05567598     0.95998557
O     -1.29263214    -0.06896866    -0.15871612
H     -0.49348256     0.08564026     0.01345213
H     -1.60263786    -0.02552508    -0.94632339
6
water clusters train frame=212
O      1.25250713    -0.08363116     0.05010691
H      0.45343566    -0.05818977    -0.08048586
H      1.65707925    -0.25296879     1.01568969
O     -1.41899496     0.09635627     0.00232011
H     -0.42437417     0.05936518     0.09050703
H     -1.45235891    -0.02258899    -0.93132213
6
water clusters train frame=213
O      1.34635474     0.00001118     0.05618985
H      0.47493138    -0.02857850     0.00030101
H      1.67665826    -0.00897347     0.90092269
O     -1.38232029    -0.01447356     0.01961812
H     -0.40885551    -0.04133642     0.04879150
H     -1.71654080    -0.02592302    -0.91747222
6
water clusters train frame=214
O      1.33499220    -0.04572522     0.09248150
H      0.47802694     0.06357012    -0.03940635
H      1.52731977    -0.03543723     1.03000419
O     -1.32581720    -0.08407185    -0.00517515
H     -0.50199608     0.06045334    -0.01697794
H     -1.56587378     0.07512205    -0.96226899
6
water clusters train frame=215
O      1.41092739    -0.00986520     0.02107431
H      0.28118848     0.10669195    -0.07377278
H      1.68277151    -0.04190898     0.90255246
O     -1.41413011     0.11540535     0.07240450
H     -0.44162200     0.03440258    -0.07733230
H     -1.71897575     0.04531653    -0.81724648
6
water clusters train frame=216
O      1.40788862    -0.00364870     0.00491971
H      0.42162523     0.01565457    -0.03140056
H      1.58963644     0.05473278     0.96054870
O     -1.40076669    -0.02348977     0.03491391
H     -0.48133343     0.01000831    -0.04983693
H     -1.66745547    -0.06735584    -0.88702066
6
water clusters train frame=217
O      1.39936630    -0.06717152    -0.09636259
H      0.44280377    -0.00349971    -0.06846436
H      1.57783549    -0.05929597     0.92254665
O     -1.39850944    -0.05277719     0.02572745
H     -0.44705797    -0.02781663     0.01313973
H     -1.66248022     0.00425833    -0.95815566
6
water clusters train frame=218
O      1.41998324     0.03846246    -0.07144835
H      0.52121956     0.04001121    -0.10206884
H      1.53748910    -0.00451594     0.90347511
O     -1.28663660    -0.02518107     0.02197090
H     -0.40599465    -0.03300887    -0.00064741
H     -1.65404930    -0.01240976    -1.10065442
6
water clusters train frame=219
O      1.38207959    -0.01123419     0.01843046
H      0.38522154    -0.03830167     0.07398910
H      1.75699807     0.00463761     0.94316081
O     -1.35572273    -0.00438087    -0.03353062
H     -0.39278936     0.04372322     0.01744715
H     -1.64259398    -0.04546632    -0.84803213
6
water clusters train frame=220
O      1.32797381    -0.09628779    -0.07310251
H      0.37227048    -0.03878156     0.00776278
H      1.58335523     0.05396366     0.83679442
O     -1.31910068     0.07362894     0.06205957
H     -0.34752207    -0.06193714    -0.02111084
H     -1.63801731    -0.07735284    -0.97744450
6
water clusters train frame=221
O      1.46857302    -0.12044137    -0.04790233
H      0.52607058    -0.35505838     0.01445709
H      1.78279249    -0.00215877     0.92067760
O     -1.48642177     0.05460232    -0.00782326
H     -0.54791319    -0.10768714     0.02496633
H     -1.71943329     0.05290678    -0.93252730
6
water clusters train frame=222
O      1.48083591     0.00117186    -0.02764725
H      0.40073851    -0.01996167     0.05243783
H      1.65796000    -0.01555278     0.95805509
O     -1.44464273     0.03096499    -0.03683226
H     -0.40569564     0.04330093    -0.01025790
H     -1.61090642     0.04373959    -0.94035194
6
water clusters train frame=223
O      1.26106745    -0.01193941     0.01778854
H      0.34943247    -0.10479723    -0.02595792
H      1.52548438     0.08611298     1.00137200
O     -1.40107240     0.05665586    -0.06861876
H     -0.38498707     0.04965683    -0.02213989
H     -1.59024968    -0.09624239    -0.95191149
6
water clusters train frame=224
O      1.41485524    -0.05580495     0.03412827
H      0.33119965     0.07569909     0.07080758
H      1.72730607     0.03895080     1.04734250
O     -1.40087445     0.13470238    -0.13985949
H     -0.45744911     0.00811754    -0.03776117
H     -1.51445095    -0.18625497    -1.11998423
6
water clusters train frame=225
O      1.41383488    -0.04902423    -0.00169740
H      0.37159770    -0.07066039     0.03091823
H      1.57164602    -0.04776106     0.90897459
O     -1.39186063     0.02289647    -0.00173370
H     -0.47158460    -0.02116007    -0.05999354
H     -1.60621778    -0.01815903    -0.97629160
6
water clusters train frame=226
O      1.37068854    -0.05401815     0.05481133
H      0.41937339     0.03806470     0.01902961
H      1.60234770     0.04024065     0.99977061
O     -1.35497727     0.00386622    -0.03115738
H     -0.32885126    -0.00234551     0.04322029
H     -1.54785627    -0.05773856    -0.84912650
6
water clusters train frame=227
O      1.47062118     0.05611738    -0.00220298
H      0.40923772     0.07252371     0.01214965
H      1.68255567     0.01593275     0.86844438
O     -1.43553192     0.05812478    -0.13270895
H     -0.39691640     0.07072998    -0.00327917
H     -1.69735958     0.05090720    -0.83979488
6
water clusters train frame=228
O      1.34087913    -0.04746121     0.02904152
H      0.40292331     0.03574823     0.00279211
H      1.65562940     0.01726345     0.89834472
O     -1.36513782     0.08277654     0.01382928
H     -0.44358854     0.01160894     0.00947115
H     -1.66010611    -0.05642310    -0.92010113
6
water clusters train frame=229
O      1.28613145    -0.03722247    -0.00589720
H      0.47610885    -0.01980827    -0.15957414
H      1.60468191     0.07072029     0.89744094
O     -1.34085512    -0.06095480    -0.14884401
H     -0.35233421    -0.03500839     0.00379881
H     -1.69249013    -0.07927547    -0.94203929
6
water clusters train frame=230
O      1.43377072    -0.05000945    -0.11951773
H      0.35911388    -0.06908666    -0.03315561
H      1.54407084     0.06667537     1.00200404
O     -1.42852579     0.12083479    -0.02827840
H     -0.40049207    -0.11924040    -0.11908771
H     -1.65228413     0.08143512    -0.84509160
6
water clusters train frame=231
O      1.31725734     0.00107084    -0.00850654
H      0.41666741    -0.08715416    -0.03472449
H      1.60495620    -0.02727637     0.96390728
O     -1.38397794     0.05646676     0.01478659
H     -0.39446560     0.05363826     0.06109207
H     -1.64411635    -0.01996623    -0.93274119
6
water clusters train frame=232
O      1.47029450     0.04381102     0.14427169
H      0.45262495     0.03451114    -0.03742290
H      1.62615234     0.01796206     0.97512947
O     -1.42761470     0.03760409    -0.00847646
H     -0.32750687     0.06356825    -0.10036104
H     -1.68256386    -0.00046781    -0.86531534
6
water clusters train frame=233
O      1.46330186     0.05831379     0.10032660
H      0.40943621    -0.13626296     0.02140720
H      1.60033732    -0.10154028     1.06090502
O     -1.53852603     0.00202508     0.07513699
H     -0.51676587    -0.06356373     0.07099846
H     -1.56761150    -0.08175390    -0.89660352
6
water clusters train frame=234
O      1.33489937     0.00850569    -0.04261679
H      0.41832510    -0.00909680     0.02528624
H      1.70968322     0.00596659     0.92302217
O     -1.43183026    -0.02769004    -0.01315217
H     -0.47528707     0.00917812     0.04784854
H     -1.54908466    -0.05412980    -0.89226262
6
water clusters train frame=235
O      1.43740336    -0.06777310     0.11721262
H      0.45013903     0.02648515    -0.07517605
H      1.62101294     0.03167917     1.01053297
O     -1.40134835    -0.07058618    -0.00478812
H     -0.40141119     0.01230634     0.01591259
H     -1.67716592     0.01190577    -0.96492218
6
water clusters train frame=236
O      1.39449681    -0.00831449     0.11588061
H      0.31403544    -0.06959432    -0.09921820
H      1.49852034    -0.14336826     0.87433839
O     -1.45857237    -0.03639150    -0.05716025
H     -0.35442035     0.12939996    -0.00552247
H     -1.58641752    -0.14306911    -0.95073779
6
water clusters train frame=237
O      1.31317445     0.00931380    -0.00084818
H      0.41031600     0.00419619     0.02380367
H      1.60724868     0.05251679     0.98242986
O     -1.38149577     0.04125942     0.07163685
H     -0.47405422     0.04114002     0.08028091
H     -1.63450999    -0.04434149    -0.96824475
6
water clusters train frame=238
O      1.45834191     0.05668866     0.00800868
H      0.44751987    -0.03381080     0.09060320
H      1.54137126    -0.03055621     0.96324580
O     -1.35290072     0.01501261     0.05413759
H     -0.31224763     0.04759928     0.01377755
H     -1.72973891     0.01639124    -0.94007160
6
water clusters train frame=239
O      1.37597844    -0.13420514    -0.12652018
H      0.48358894    -0.01926323    -0.04459186
H      1.60877533     0.16520677     0.90987039
O     -1.31738857    -0.01910384     0.02016039
H     -0.41655957     0.05197779     0.05714626
H     -1.66850895     0.01596397    -0.94845154
6
water clusters train frame=240
O      1.44276924    -0.01255307    -0.05161107
H      0.45633779     0.04444058     0.05858575
H      1.64049554     0.02084377     0.89106736
O     -1.42627789    -0.03960627     0.06342638
H     -0.45240770     0.05197994     0.06948369
H     -1.54132765     0.00343011    -0.90090911
6
water clusters train frame=241
O      1.28189771    -0.07481357    -0.10047170
H      0.43684336    -0.05102970     0.02245943
H      1.61769617     0.02387286     0.89350811
O     -1.47903079    -0.00415024    -0.07877573
H     -0.46211278     0.13753089    -0.00866758
H     -1.60682103    -0.03509112    -0.85002100
6
water clusters train frame=242
O      1.38695410    -0.02887044     0.05955052
H      0.40520474    -0.04798184     0.00028063
H      1.63595321    -0.03792720     0.85000012
O     -1.43621300     0.09082702     0.14131252
H     -0.44101319    -0.05742605    -0.03841671
H     -1.57314504     0.03728128    -0.88205224
6
water clusters train frame=243
O      1.36196356    -0.02271053    -0.02774836
H      0.46193503     0.00483460     0.03128100
H      1.67050265     0.02729114     0.92325210
O     -1.33355837    -0.05109034     0.04486184
H     -0.45219417    -0.00581366    -0.00939788
H     -1.62246850     0.01805168    -0.89219826
6
water clusters train frame=244
O      1.38324938    -0.00547986     0.02067538
H      0.37331018     0.00627235    -0.03355329
H      1.50450185    -0.12808192     0.91950261
O     -1.25588279    -0.02532864    -0.01097437
H     -0.40860507    -0.03324401    -0.02988013
H     -1.62542896     0.00716136    -0.91038491
6
water clusters train frame=245
O      1.45738932    -0.16131723    -0.00155496
H      0.49018149     0.08546396    -0.20779974
H      1.71196926     0.12524328     0.88271332
O     -1.45074440    -0.06672949     0.11329701
H     -0.54389378    -0.03053997    -0.12461530
H     -1.57511353     0.08684318    -0.91332007
6
water clusters train frame=246
O      1.39740402    -0.03903515     0.00949814
H      0.42896853    -0.01047118    -0.02648698
H      1.62677234     0.00116262     0.99663895
O     -1.38748333    -0.03149256     0.03384901
H     -0.44503078    -0.00339375    -0.06746530
H     -1.58919483    -0.07005942    -0.88546486
6
water clusters train frame=247
O      1.40463620    -0.03126413    -0.03864360
H      0.43848598     0.08780791    -0.00884116
H      1.64605422     0.00548962     1.00032855
O     -1.48075114    -0.11829720    -0.00525940
H     -0.44355958     0.00753592     0.02718447
H     -1.62392777    -0.02582478    -0.85261641
6
water clusters train frame=248
O      1.39862055     0.02720422     0.02214470
H      0.33996397    -0.07074006     0.01266372
H      1.67319487    -0.04289020     0.94692978
O     -1.46149263     0.05486549    -0.05257356
H     -0.42565232     0.06935765     0.00934583
H     -1.49829936    -0.18620502    -0.96984706
6
water clusters train frame=249
O      1.40346647    -0.02998905     0.00557586
H      0.46877811    -0.06419041     0.04060005
H      1.62781074    -0.05467078     0.91844821
O     -1.52248231     0.06326344     0.03420931
H     -0.44243290    -0.04252666     0.04053665
H     -1.58309352     0.02836339    -0.87660312
9
water clusters train frame=250
O      1.55436835     0.03027591     0.11931506
H      0.81162106     0.46244493     0.14730298
H      1.75483568    -0.07097894     1.11169475
O     -0.83596012     1.35015489    -0.16587697
H     -0.81360142     0.41153160    -0.11761461
H     -0.82469540     1.60959673    -1.03476380
O     -0.82717617    -1.39628595     0.10106266
H      0.00678928    -0.92396699     0.06486315
H     -0.97492717    -1.47497883     1.16599446
9
water clusters train frame=251
O      1.52932438     0.02769272     0.11672523
H      0.64835490     0.51822540     0.10765164
H      1.69936260    -0.06357037     1.12439894
O     -0.84603164     1.45938683    -0.15811576
H     -0.75542026     0.53264991    -0.00949614
H     -0.77589914     1.56607460    -1.14785147
O     -0.74788908    -1.29520463     0.08355845
H      0.09177593    -0.95926868    -0.00298730
H     -1.00038241    -1.42279354     1.16469852
9
water clusters train frame=252
O      1.50113191     0.05605495     0.06993796
H      0.86137975     0.53896395    -0.00860159
H      1.85154458     0.09351249     1.03869121
O     -0.74766301     1.41806657    -0.14342417
H     -0.89338893     0.41464843    -0.23738111
H     -0.77331078     1.54660435    -1.12145481
O     -0.89716543    -1.46625517     0.11858351
H      0.01424904    -0.91102264     0.12244752
H     -0.98695986    -1.44318693     1.02670318
9
water clusters train frame=253
O      1.66100575    -0.03851578     0.18164854
H      0.74976900     0.54606537     0.02294824
H      1.71699873    -0.03678724     1.10973520
O     -0.79990095     1.33046430    -0.13572434
H     -0.83765669     0.52522462    -0.11917698
H     -0.76063573     1.47565470    -1.08427372
O     -0.80264411    -1.42472731     0.13846458
H      0.01728706    -0.92449481     0.09936089
H     -0.99955770    -1.41135439     1.07817370
9
water clusters train frame=254
O      1.58108812     0.11070287     0.14141304
H      0.76469914     0.51070990     0.04107725
H      1.85373322    -0.14257868     1.05960718
O     -0.83667050     1.36548340    -0.08245144
H     -0.81580457     0.42283093    -0.03048020
H     -0.73265034     1.59569522    -1.04220962
O     -0.79366221    -1.35288047     0.13749267
H      0.05499075    -0.74848613     0.13221505
H     -1.05435248    -1.51130854     1.11599050
9
water clusters train frame=255
O      1.64849706     0.04405833     0.22545890
H      0.78729463     0.49519130     0.11702000
H      1.71947880    -0.17985217     1.06846884
O     -0.89154085     1.31888662    -0.22877572
H     -0.94905036     0.37734714    -0.05523611
H     -0.81853304     1.55243197    -1.05114369
O     -0.71923900    -1.45793224     0.06091131
H      0.08614472    -0.82289161     0.06779581
H     -1.05655377    -1.37811142     1.12482246
9
water clusters train frame=256
O      1.54850923    -0.02819528     0.16279506
H      0.74591238     0.45627904     0.03022722
H      1.75272814    -0.15443350     1.10712028
O     -0.66729519     1.44779227    -0.07648210
H     -0.83187710     0.44933895    -0.13389173
H     -0.80745883     1.53861315    -1.10969200
O     -0.78438618    -1.38123492     0.13980702
H      0.03196218    -0.82812679     0.12945703
H     -0.99699452    -1.49355384     1.00706174
9
water clusters train frame=257
O      1.54149495     0.07824306     0.09277329
H      0.68168544     0.38966774     0.02841199
H      1.67955347    -0.11070424     1.07740259
O     -0.81487995     1.37006412    -0.13611192
H     -0.81032634     0.49759352    -0.10541951
H     -0.76182884     1.56538029    -1.14642512
O     -0.82698456    -1.35052801     0.11996707
H      0.01032949    -0.99739149     0.05229773
H     -0.93614680    -1.57813770     1.02176262
9
water clusters train frame=258
O      1.60325232     0.03288611     0.16093509
H      0.84600887     0.45986330     0.11413321
H      1.65037867    -0.15731538     1.12764586
O     -0.89233577     1.60941078    -0.20995502
H     -0.76088757     0.43919998    -0.09548494
H     -1.00134199     1.57305930    -1.02781212
O     -0.84186453    -1.33857639    -0.00316174
H     -0.02253197    -0.91145032     0.08160854
H     -0.93764590    -1.52036263     1.10149201
9
water clusters train frame=259
O      1.54942448     0.00023444     0.23245228
H      0.77593924     0.48822811     0.12190394
H      1.84236913    -0.02858355     1.08770553
O     -0.82211500     1.39779367    -0.12488546
H     -0.80280483     0.37761700    -0.09962645
H     -0.79376031     1.57772191    -1.10131552
O     -0.80066497    -1.37817186     0.13627807
H     -0.00696404    -0.90815842     0.10201525
H     -0.96979166    -1.52585128     1.08521146
9
water clusters train frame=260
O      1.59504010    -0.01872801     0.15763171
H      0.70537104     0.57604931     0.07799036
H      1.69098745    -0.05482048     1.04959988
O     -0.85723856     1.40433443    -0.15607794
H     -0.84747452     0.48739728    -0.12227056
H     -0.70769042     1.60389133    -1.02100134
O     -0.78580118    -1.34073448     0.11934960
H     -0.08358204    -0.86837197     0.21692826
H     -0.99381491    -1.51114439     1.20870667
9
water clusters train frame=261
O      1.63006385    -0.01518902    -0.00513181
H      0.74189782     0.35617368     0.04598422
H      1.69435242     0.07421004     1.03771438
O     -0.76449673     1.35698981    -0.15525148
H     -0.80693990     0.43233506    -0.15673184
H     -0.68551375     1.58476029    -1.16544512
O     -0.77098767    -1.42454846     0.08255348
H     -0.00655661    -1.02843406     0.04148035
H     -1.18248981    -1.43722239     1.04115407
9
water clusters train frame=262
O      1.53531780     0.02728289     0.12341141
H      0.73799123     0.49081566     0.10941146
H      1.81846961    -0.12534225     1.05760395
O     -0.77051621     1.39470669    -0.13065050
H     -0.75520206     0.39744083    -0.13228529
H     -0.82485774     1.56330560    -1.06198660
O     -0.72956752    -1.29813404     0.14197582
H      0.04197443    -0.86699339     0.05337723
H     -0.95644874    -1.43789889     1.10495521
9
water clusters train frame=263
O      1.69596752    -0.00026064     0.19710104
H      0.71137803     0.43768814     0.20832863
H      1.71807211    -0.15011251     1.07385317
O     -0.80678773     1.37616163    -0.10956225
H     -0.77088615     0.42461080    -0.11706603
H     -0.66297602     1.65730326    -1.09184369
O     -0.75430314    -1.41725150     0.16828155
H      0.02637828    -0.85835929     0.15544669
H     -0.84009144    -1.53630531     1.09328948
9
water clusters train frame=264
O      1.60038228    -0.05078560     0.14939171
H      0.76009282     0.51155351     0.10260075
H      1.74467264    -0.07553088     1.18271869
O     -0.78909791     1.32961831    -0.23192447
H     -0.68768932     0.52372619    -0.00301947
H     -0.85696324     1.62876715    -1.01543968
O     -0.73472238    -1.43520332     0.09586028
H      0.16178849    -0.97388893     0.03645739
H     -1.05434498    -1.50000620     1.14808385
9
water clusters train frame=265
O      1.52016884     0.01362166     0.15081740
H      0.76813888     0.44480066     0.01721177
H      1.77067882    -0.09953296     1.02338006
O     -0.83036850     1.41562656    -0.11341673
H     -0.79042346     0.44180054    -0.10896084
H     -0.85527017     1.54012077    -1.08099955
O     -0.70059765    -1.37715148     0.14785971
H      0.03911827    -0.90768251     0.12589878
H     -0.90765695    -1.37884351     1.12759892
9
water clusters train frame=266
O      1.51306817     0.01808350     0.15919049
H      0.81478056     0.57139274     0.18163509
H      1.67326234    -0.07629976     1.18682289
O     -0.82767818     1.38179315    -0.24605573
H     -0.80288172     0.41223730    -0.11420091
H     -0.80323313     1.58631629    -1.10758290
O     -0.78527561    -1.31789478     0.21437144
H     -0.01756420    -1.01168743     0.11667521
H     -1.03680166    -1.49191937     1.03554902
9
water clusters train frame=267
O      1.64201358    -0.08983580     0.22130165
H      0.72464410     0.44202607     0.13183082
H      1.64155237     0.16815307     1.12995732
O     -0.79248063     1.31601281    -0.07997348
H     -0.78128195     0.31091409     0.00985801
H     -0.83187761     1.57609806    -1.08977591
O     -0.86377298    -1.39400428     0.18448550
H      0.09001676    -0.77339885    -0.01926213
H     -0.93327019    -1.51423617     1.11756542
9
water clusters train frame=268
O      1.56206509    -0.00024353     0.17830629
H      0.77062142     0.43613957     0.12647022
H      1.69897653    -0.12472953     1.05577809
O     -0.73373424     1.43850642    -0.16202641
H     -0.76703466     0.45475471    -0.12898563
H     -0.80557622     1.58086739    -1.06892864
O     -0.83752691    -1.42672196     0.09054351
H      0.08502883    -0.87909872     0.08230794
H     -0.90178652    -1.43893449     1.11841644
9
water clusters train frame=269
O      1.53173185     0.11124721     0.11153293
H      0.70534022     0.42762743     0.08399483
H      1.78281721    -0.13130219     1.19035530
O     -0.72956302     1.25840615    -0.15881503
H     -0.80052435     0.44273684    -0.06723266
H     -0.75677488     1.54578762    -1.04726443
O     -0.77382264    -1.36720867     0.13745036
H      0.09018083    -0.88764014     0.15474990
H     -0.92904048    -1.52257193     1.07901226
9
water clusters train frame=270
O      1.58755236     0.05713799     0.14671824
H      0.83226076     0.50339520     0.11107187
H      1.84555284    -0.12476591     1.02261783
O     -0.94958474     1.44131343    -0.27249626
H     -0.84080518     0.45971749    -0.02122310
H     -0.87104997     1.54521089    -1.16596899
O     -0.81453899    -1.39810379     0.15585565
H      0.03614734    -0.96661398     0.21246539
H     -1.01135135    -1.44924810     1.06681917
9
water clusters train frame=271
O      1.61989529     0.05753394     0.14334287
H      0.70239900     0.45728522     0.15648707
H      1.80849557    -0.07404395     1.07808315
O     -0.79201682     1.36711134    -0.18203999
H     -0.77962855     0.45132197    -0.06006794
H     -0.71236203     1.46562268    -1.12807119
O     -0.83905921    -1.37571957     0.09417321
H      0.03500314    -0.93655601     0.05100790
H     -0.95922730    -1.43357730     1.15015548
9
water clusters train frame=272
O      1.52996900    -0.10098338     0.11188237
H      0.81715567     0.51992060     0.02504923
H      1.75408539    -0.03429674     1.22738890
O     -0.76507008     1.34730736    -0.10969561
H     -0.80029306     0.45614953    -0.11396370
H     -0.84527006     1.63543681    -1.10127453
O     -0.80072253    -1.37569947     0.14912041
H      0.11334338    -0.90372680     0.17548806
H     -0.92914728    -1.46125360     1.11643197
9
water clusters train frame=273
O      1.64080555    -0.02052577     0.15326740
H      0.68428261     0.44157592     0.15825876
H      1.87636730     0.01888046     1.12350823
O     -0.67436382     1.40815153    -0.14478400
H     -0.79911901     0.48212946    -0.13535070
H     -0.79747535     1.55609183    -1.05320203
O     -0.72280360    -1.42248028     0.20539112
H      0.03711112    -0.93689813     0.07589997
H     -1.03906596    -1.36001557     0.99020587
9
water clusters train frame=274
O      1.58646358    -0.00005154     0.14465519
H      0.79977848     0.48222507     0.09214566
H      1.76135152    -0.09992571     1.05279473
O     -0.77058099     1.40169136    -0.18087841
H     -0.75206134     0.37346579    -0.04973553
H     -0.78370864     1.53177999    -1.05469579
O     -0.78650035    -1.40913688     0.10361410
H      0.09830709    -0.89037723     0.16543722
H     -1.00004051    -1.43694520     1.06858262
9
water clusters train frame=275
O      1.63831922     0.05181151     0.09025959
H      0.75360350     0.38088706     0.09892971
H      1.83530480    -0.00060357     1.08347199
O     -0.73532190     1.36901964    -0.14515094
H     -0.98104865     0.39345995    -0.13410306
H     -0.75698752     1.65493366    -1.09741498
O     -0.80564787    -1.47975896     0.09849001
H     -0.02311668    -0.93997945     0.06787024
H     -0.87456173    -1.49669409     1.07412510
9
water clusters train frame=276
O      1.56052175    -0.01141176    -0.01685792
H      0.65212938     0.48995107     0.07053923
H      1.68975624    -0.09861422     1.16507671
O     -0.81702629     1.46322135    -0.26829236
H     -0.73753810     0.49160197    -0.18695223
H     -0.97473964     1.47898757    -1.09104336
O     -0.92190006    -1.22383229     0.21333968
H     -0.09159841    -0.98356148     0.01493679
H     -0.98370806    -1.37777239     0.95397450
9
water clusters train frame=277
O      1.60331008    -0.03100654     0.12259371
H      0.81001651     0.50456317     0.06944401
H      1.71366681    -0.03181943     1.04729337
O     -0.83203335     1.35786356    -0.10356094
H     -0.78539962     0.41748451    -0.01901879
H     -0.80467667     1.55468129    -1.10169452
O     -0.79664784    -1.40495278     0.16177963
H      0.10305279    -0.88424469     0.11301344
H     -1.02322271    -1.47159086     1.02485944
9
water clusters train frame=278
O      1.61316493     0.04690844     0.05877423
H      0.83395915     0.44656865     0.06861154
H      1.72380939    -0.16749641     1.03662979
O     -0.76104281     1.34487859    -0.08195561
H     -0.81602707     0.44074554    -0.10867473
H     -0.89703156     1.63507111    -1.04848296
O     -0.81272206    -1.36447703     0.22803639
H      0.03104242    -0.86074559     0.19188448
H     -1.04505279    -1.34986194     1.10809696
9
water clusters train frame=279
O      1.63052710    -0.04227039     0.10409826
H      0.82515452     0.45128420     0.15803119
H      1.60851092    -0.19369822     1.04797958
O     -0.73633288     1.33446695    -0.02910535
H     -0.84601185     0.41220390    -0.17693434
H     -0.84258724     1.53133517    -1.00983728
O     -0.71360843    -1.49204607     0.19690038
H      0.02764748    -0.79042156     0.14779833
H     -0.88074799    -1.42352053     1.05296697
9
water clusters train frame=280
O      1.64929896    -0.03928079     0.16158042
H      0.72468055     0.42757874     0.11612436
H      1.72108009    -0.15815602     1.04132345
O     -0.74320646     1.38242113    -0.16474000
H     -0.82115688     0.45055671    -0.07282815
H     -0.74025645     1.52306752    -1.14668944
O     -0.81625857    -1.35599020     0.21970219
H      0.02728466    -0.91422259     0.14691798
H     -1.04017675    -1.48425928     1.08722810
9
water clusters train frame=281
O      1.60471548     0.10291329     0.14040918
H      0.74192714     0.47364048     0.08974142
H      1.79218029    -0.13444664     1.10425654
O     -0.68642857     1.40699243    -0.07121935
H     -0.68275591     0.41776242    -0.15533181
H     -0.82085666     1.59586686    -1.05578227
O     -0.75195529    -1.34382473     0.21739931
H      0.05123204    -0.87302931     0.04093746
H     -0.91430817    -1.50652825     1.17531774
9
water clusters train frame=282
O      1.57823150    -0.00479517     0.08540928
H      0.75979818     0.52933438     0.03106004
H      1.90347647    -0.17092534     1.05067023
O     -0.77018952     1.47279833    -0.15336719
H     -0.92144889     0.45217820     0.00052381
H     -0.68380191     1.54345382    -1.17622695
O     -0.78720317    -1.63000864     0.08155395
H      0.08396630    -0.87620174     0.07458535
H     -0.90054638    -1.64600752     1.01761437
9
water clusters train frame=283
O      1.53529761     0.03527567     0.16256716
H      0.81108113     0.48142899     0.13017603
H      1.77692435    -0.07791676     1.11183131
O     -0.76582159     1.34194871    -0.18151802
H     -0.80148588     0.40595951    -0.19422082
H     -0.82466566     1.60370054    -1.10420206
O     -0.81418697    -1.42313656     0.11306914
H      0.00674280    -0.91500186     0.02801694
H     -0.98386604    -1.47903704     1.04896929
9
water clusters train frame=284
O      1.61462977     0.04640081     0.18292281
H      0.88224706     0.53720033     0.02511753
H      1.77420230    -0.04073045     1.07211801
O     -0.84119133     1.42259375    -0.13892155
H     -0.74837873     0.46806926    -0.10356906
H     -0.90142507     1.58895637    -1.08410088
O     -0.87052929    -1.39654083     0.21243412
H      0.02247631    -0.86134016     0.13461131
H     -0.96172969    -1.59275126     1.11415931
9
water clusters train frame=285
O      1.59470756     0.02350092     0.19664768
H      0.76217850     0.52842816    -0.08901915
H      1.84943144    -0.22979111     1.09600720
O     -0.91680918     1.37229454    -0.15132111
H     -0.79949724     0.39005489    -0.06192542
H     -0.93743801     1.66603098    -1.09268961
O     -0.84150173    -1.46250918     0.14213442
H      0.08515854    -0.86501014    -0.07831418
H     -0.82467965    -1.44137674     1.06005810
9
water clusters train frame=286
O      1.53008625    -0.07991816     0.15438836
H      0.76132100     0.47336937     0.08455988
H      1.79323979    -0.10440993     1.05039013
O     -0.72294556     1.38554835    -0.11310879
H     -0.77251058     0.35634017    -0.07987825
H     -0.79886170     1.64468945    -1.09058084
O     -0.91733219    -1.41757925     0.17755028
H     -0.05486558    -0.95699440     0.14481134
H     -1.00218617    -1.47573569     1.07259443
9
water clusters train frame=287
O      1.66957439     0.10199469     0.23948074
H      0.79226253     0.43882232     0.11058150
H      1.74390445    -0.10812282     1.14786234
O     -0.88837420     1.29636277    -0.13246389
H     -0.72690319     0.38331068     0.01781296
H     -0.77999797     1.59261946    -1.03389907
O     -0.77416169    -1.33683462     0.12408837
H      0.03391734    -0.95542741     0.21694218
H     -0.93265563    -1.62977605     0.93112666
9
water clusters train frame=288
O      1.76140714     0.00320718     0.13877424
H      0.88906049     0.66062308     0.15070099
H      1.63193805    -0.16905278     1.11628229
O     -0.81637002     1.43296037    -0.11600402
H     -0.78210428     0.40131292    -0.05348202
H     -0.83152449     1.56626926    -0.98040230
O     -0.70606289    -1.35637501     0.26445156
H     -0.06757830    -0.90521681     0.23444021
H     -0.98999124    -1.35292751     1.11230661
9
water clusters train frame=289
O      1.63101015     0.03618306     0.11063282
H      0.74694326     0.42878911     0.14083380
H      1.75180236    -0.05620187     1.03157198
O     -0.79978884     1.44133048    -0.13458872
H     -0.86245310     0.43985647    -0.14303822
H     -0.86679132     1.55927068    -1.09350573
O     -0.81147483    -1.37789328     0.22474123
H      0.01262775    -0.81457571     0.17721301
H     -0.94497386    -1.55964079     1.10627675
9
water clusters train frame=290
O      1.66573387    -0.00579494     0.14083603
H      0.68289368     0.51115969     0.14160061
H      1.82886514    -0.04654291     1.10169399
O     -0.77303292     1.40079826    -0.21856993
H     -0.75815623     0.45475320    -0.01503899
H     -0.79511067     1.61498182    -1.01736141
O     -0.89880410    -1.38657471     0.16461470
H      0.01876651    -0.92876841     0.19136169
H     -0.97331512    -1.51780542     1.18246791
9
water clusters train frame=291
O      1.50006742     0.08496374     0.19607405
H      0.83547069     0.52583723     0.17995238
H      1.69941102     0.00236292     1.10428744
O     -0.78325333     1.47666207    -0.15265561
H     -0.86760543     0.44167661    -0.03055008
H     -0.72963546     1.61786528    -1.21617696
O     -0.69194368    -1.32891521     0.14611602
H     -0.03685793    -0.89379758     0.11955897
H     -1.02780103    -1.36846189     1.06489014
9
water clusters train frame=292
O      1.57251680    -0.05615606     0.14788790
H      0.78177322     0.44287882     0.14331500
H      1.74553827    -0.06237895     1.07224659
O     -0.74335165     1.42722131    -0.16012461
H     -0.80399102     0.40916205    -0.10315718
H     -0.86125094     1.56910885    -1.09403448
O     -0.79854016    -1.43371255     0.15363038
H      0.01613956    -0.83394608    -0.01976282
H     -0.95550345    -1.50833187     1.07480144
9
water clusters train frame=293
O      1.75300419    -0.13315260     0.19319361
H      0.78517610     0.43022078     0.09862493
H      1.72146912    -0.10375846     1.13808467
O     -0.89989263     1.32905544    -0.17018880
H     -0.83657513     0.51549475    -0.07590357
H     -0.85766221     1.52528339    -1.20295197
O     -0.83376452    -1.45322709     0.01937532
H     -0.01252528    -0.88049864     0.16633716
H     -0.98944407    -1.42039032     1.09206684
9
water clusters train frame=294
O      1.58619826    -0.02363408     0.12995181
H      0.76415740     0.50355300     0.12971648
H      1.75967474    -0.20231872     1.04163684
O     -0.82962301     1.31767505    -0.24686248
H     -0.75236307     0.38319771    -0.17947807
H     -0.67096157     1.50092057    -1.03533700
O     -0.77683346    -1.30800540     0.23240043
H      0.11676591    -0.84458715     0.19853320
H     -0.81372660    -1.60214251     1.12703707
9
water clusters train frame=295
O      1.59128382     0.01885263     0.15772624
H      0.83474875     0.50450842     0.09302501
H      1.80647973    -0.01498517     1.05718611
O     -0.84813272     1.38610608    -0.13597698
H     -0.83159091     0.38119921    -0.10721990
H     -0.82776240     1.57913260    -1.10251647
O     -0.77691524    -1.42225685     0.16684162
H      0.04766672    -0.87449184     0.09615082
H     -1.03556503    -1.48259001     1.04798959
9
water clusters train frame=296
O      1.50288103    -0.00047455     0.10768867
H      0.71941858     0.56874709     0.01959220
H      1.71860601    -0.18762299     1.11435413
O     -0.77477310     1.44752991    -0.10097511
H     -0.78755599     0.34992542     0.00555177
H     -0.80522761     1.55221954    -0.98203613
O     -0.85281868    -1.30152760     0.20370746
H      0.02247669    -0.92374779     0.01068214
H     -1.07780087    -1.42243719     1.05106786
9
water clusters train frame=297
O      1.62443923     0.01568005     0.26606539
H      0.64784913     0.38854566     0.22254926
H      1.84384138     0.00372394     1.04330133
O     -0.86622378     1.41635008    -0.22921844
H     -0.72865325     0.28309944    -0.03981210
H     -0.95511573     1.47711725    -1.20112024
O     -0.84142118    -1.31057843     0.17519436
H      0.00292945    -0.80427338    -0.05397790
H     -1.00370493    -1.47293720     1.25646145
9
water clusters train frame=298
O      1.63180033    -0.04948940     0.14526055
H      0.71058397     0.50170612     0.10566293
H      1.73792338     0.01311983     1.03147066
O     -0.75433151     1.46667521    -0.14213912
H     -0.87894697     0.44171969    -0.11170934
H     -0.74167204     1.57736273    -1.01296777
O     -0.81078270    -1.48607048     0.18182227
H      0.02648041    -0.87332557     0.10737744
H     -0.94516590    -1.42721800     1.11275439
9
water clusters train frame=299
O      1.61284192    -0.04623646     0.15352492
H      0.79922286     0.52171385     0.11452297
H      1.74453164    -0.18329463     1.10655487
O     -0.69349643     1.34196083    -0.18206444
H     -0.82364188     0.37925148    -0.09496777
H     -0.74402087     1.58684191    -1.05839790
O     -0.84326810    -1.35417279     0.07256934
H      0.05080727    -0.85568997     0.04162966
H     -0.90338797    -1.42336648     1.11711127
9
water clusters train frame=300
O      1.45518441    -0.12108205     0.08833455
H      0.84318579     0.41751272     0.23655913
H      1.71677749     0.06869543     1.08528018
O     -0.80775744     1.34225944    -0.05484908
H     -0.77483441     0.51341530    -0.09377515
H     -0.73785151     1.55520928    -0.96138323
O     -0.84407875    -1.34445504     0.12459314
H      0.07331941    -0.90127435     0.23258264
H     -1.13976911    -1.59385629     1.01474996
9
water clusters train frame=301
O      1.54818182    -0.09185339     0.20796290
H      0.75056666     0.45666861     0.10367273
H      1.68520918    -0.12750439     1.13395482
O     -0.73283449     1.45825456    -0.12599729
H     -0.81648080     0.45308933    -0.09406566
H     -0.80999086     1.56207713    -1.14464734
O     -0.78055037    -1.38509495     0.15984522
H      0.04035043    -0.82804291     0.17436428
H     -1.00177312    -1.49765791     1.10014961
9
water clusters train frame=302
O      1.57746562     0.05262778     0.06644384
H      0.83557698     0.56287924     0.15190133
H      1.84052121    -0.15194668     1.12187406
O     -0.83249698     1.34581694    -0.17549344
H     -0.74354088     0.45963895    -0.15920060
H     -0.86386113     1.67329253    -1.03032731
O     -0.78090172    -1.40585575     0.19678823
H      0.01036448    -0.81058169     0.13109887
H     -0.91679324    -1.40003513     1.10624794
9
water clusters train frame=303
O      1.59794358    -0.02231284     0.16175918
H      0.73086480     0.46768998     0.14502948
H      1.75217821    -0.09812168     1.31104437
O     -0.92192481     1.29069615    -0.13350340
H     -0.93720086     0.53253375    -0.18611088
H     -0.73215010     1.47163059    -0.94644766
O     -0.95001245    -1.33403802     0.26276429
H      0.14481658    -0.89661141     0.15694129
H     -0.96636434    -1.56704509     1.08694044
9
water clusters train frame=304
O      1.58364688    -0.00993409     0.20799366
H      0.76587461     0.48065601     0.12117401
H      1.80252531    -0.14191176     1.04369255
O     -0.80811765     1.36541539    -0.12926978
H     -0.79497035     0.48066936    -0.11089997
H     -0.70099648     1.58148590    -1.11196837
O     -0.77235328    -1.35568858     0.11431200
H      0.05257297    -0.87714145     0.11193054
H     -0.98367534    -1.47937695     1.09463344
9
water clusters train frame=305
O      1.52157179    -0.04836956     0.08143432
H      0.76737898     0.54572362     0.11734739
H      1.67714341    -0.09504053     1.19077778
O     -0.78268083     1.43807440    -0.10942506
H     -0.75215718     0.39378650    -0.10870151
H     -0.88595005     1.63335111    -1.09304609
O     -0.82409159    -1.41365760     0.19625732
H      0.11415653    -0.90309937     0.11039359
H     -1.00201297    -1.50750268     1.11825263
9
water clusters train frame=306
O      1.58145303     0.16077075     0.20659562
H      0.67932263     0.53647867     0.10840863
H      1.91163790    -0.07005115     1.21307707
O     -0.97777549     1.38935515    -0.13204800
H     -0.74184533     0.49099311    -0.03461861
H     -0.82110470     1.47932772    -1.03704625
O     -0.80381235    -1.45913844     0.08993729
H     -0.03925902    -1.02741020     0.06514040
H     -0.93327802    -1.47218718     1.07815502
9
water clusters train frame=307
O      1.57519752    -0.00546399     0.15242720
H      0.78479350     0.53219721     0.08097332
H      1.79968975    -0.03113213     1.08253378
O     -0.84001237     1.44597301    -0.09600482
H     -0.79678390     0.41158865    -0.12834333
H     -0.79885674     1.60122912    -1.02180022
O     -0.76944358    -1.42629297     0.14097294
H      0.12570763    -0.90411793     0.07903598
H     -0.95886619    -1.38352760     1.12754710
9
water clusters train frame=308
O      1.61024210    -0.04627056     0.23347547
H      0.77490263     0.44440718     0.17918030
H      1.69418274     0.00621756     1.07641586
O     -0.70115666     1.38473842    -0.08213296
H     -0.79405055     0.36934780    -0.22828176
H     -0.91809303     1.55463979    -1.06399132
O     -0.84170564    -1.33464922     0.08851437
H      0.04232575    -0.74603193     0.13403604
H     -0.99434943    -1.53646363     1.16631956
9
water clusters train frame=309
O      1.65651025     0.00249198     0.04983370
H      0.62032681     0.32229501     0.11138428
H      1.55936113    -0.10029179     1.07615350
O     -0.66520108     1.49592751    -0.07877649
H     -0.73060233     0.39273942    -0.08507122
H     -0.76939945     1.56977712    -1.00402112
O     -0.84883163    -1.43599955     0.18287540
H      0.02895867    -0.90120622     0.01155256
H     -1.01660608    -1.59180512     1.09977680
9
water clusters train frame=310
O      1.55966670     0.01190887     0.16637172
H      0.75498845     0.51578166     0.11337516
H      1.71301250    -0.07905411     1.07783469
O     -0.79529750     1.35714703    -0.12645194
H     -0.83017128     0.39877833    -0.15196791
H     -0.79100064     1.58196955    -1.13460237
O     -0.78325458    -1.34686476     0.16142065
H      0.05283871    -0.81516979     0.12553769
H     -0.95896644    -1.54601688     1.14817497
9
water clusters train frame=311
O      1.57993644    -0.01127153     0.01241765
H      0.85876827     0.58207325     0.09868351
H      1.68228099    -0.06904502     1.22559888
O     -0.78966039     1.36567138    -0.21025320
H     -0.87633590     0.37254120    -0.10414287
H     -0.78372905     1.59176356    -1.16961200
O     -0.81175048    -1.38516144     0.19618745
H      0.13918240    -0.99066709     0.08161243
H     -0.91606594    -1.50333878     1.13250252
9
water clusters train frame=312
O      1.64542087     0.00785101     0.20671232
H      0.75383025     0.45244590     0.18904705
H      1.60058055    -0.17640979     0.96241711
O     -0.77757531     1.23534404    -0.15446551
H     -0.94832318     0.47117591    -0.11546918
H     -0.68919258     1.50213497    -1.02290508
O     -0.83348322    -1.42003384     0.22270753
H      0.16181118    -0.82581060     0.25421381
H     -1.00262602    -1.54062238     0.99846342
9
water clusters train frame=313
O      1.51286202     0.01709865     0.19070941
H      0.82859894     0.50342242     0.08914427
H      1.77589148    -0.10549018     1.07838870
O     -0.73983108     1.44228420    -0.14161946
H     -0.83819612     0.45905240    -0.06707437
H     -0.82025267     1.55107296    -1.02846484
O     -0.82605844    -1.40369561     0.21313492
H      0.00701309    -0.88026608     0.10829553
H     -0.94495932    -1.48283201     1.08655888
9
water clusters train frame=314
O      1.63069059     0.02431979     0.05829272
H      0.72254080     0.41477505     0.07792643
H      1.79757994    -0.04797689     1.20643962
O     -0.81345167     1.40170103    -0.16635202
H     -0.78894066     0.46562323    -0.19452578
H     -0.81444605     1.61214385    -1.01495517
O     -0.78591809    -1.25753369     0.18093571
H      0.09456916    -0.94169853     0.19885108
H     -0.92699747    -1.50313421     1.10970131
9
water clusters train frame=315
O      1.59998329     0.06585298    -0.00903177
H      0.77783278     0.42967965     0.00472073
H      1.76488261     0.01534700     1.04571177
O     -0.70008176     1.39433271    -0.06825956
H     -0.70708869     0.32711328    -0.22627980
H     -0.84592612     1.51126795    -1.08593747
O     -0.83618410    -1.42665183     0.07978811
H      0.02396033    -0.80039735    -0.08387062
H     -0.80856384    -1.38190099     1.27908631
9
water clusters train frame=316
O      1.61512595     0.04854963     0.10677687
H      0.74863809     0.38586964     0.12594571
H      1.67207866    -0.13482262     1.03744725
O     -0.79493944     1.40053424    -0.13338804
H     -0.82789892     0.46580557    -0.15280442
H     -0.82045966     1.57842355    -1.09018563
O     -0.84750362    -1.39715819     0.09884462
H      0.05300502    -0.88799100     0.03289033
H     -0.94294728    -1.47132977     1.11170507
9
water clusters train frame=317
O      1.62857301    -0.00729201     0.21057428
H      0.79050382     0.46250916     0.06706099
H      1.65623179    -0.12580151     1.04087512
O     -0.77189173     1.40620335    -0.15485542
H     -0.69976913     0.44547174    -0.05424673
H     -0.84536068     1.66193228    -1.09908754
O     -0.80970461    -1.32234541     0.21468863
H      0.07956953    -0.81591474     0.06437076
H     -0.84180035    -1.41687893     1.12362190
9
water clusters train frame=318
O      1.51818259    -0.04801765     0.17057543
H      0.72156200     0.41271922     0.02753205
H      1.94949697    -0.16613157     1.02839821
O     -0.81784902     1.46868062    -0.08212505
H     -0.72402969     0.41997490    -0.09835330
H     -0.74453724     1.65460072    -1.02035251
O     -0.87325179    -1.37487011     0.22034854
H      0.01788744    -1.08977111     0.15532684
H     -1.14318697    -1.50350744     0.98458806
9
water clusters train frame=319
O      1.57658414    -0.03820965     0.09990125
H      0.80174889     0.52758318     0.05381061
H      1.78922422    -0.08899951     1.13914293
O     -0.79611171     1.34540752    -0.19950904
H     -0.73229531     0.35313457    -0.20705093
H     -0.70511595     1.62874999    -1.05715017
O     -0.72029385    -1.40114999     0.19875880
H      0.03477523    -0.85147992     0.08345114
H     -0.89051110    -1.39823003     1.08615746
9
water clusters train frame=320
O      1.51667992    -0.06638581     0.22977890
H      0.83139462     0.47756213     0.18207161
H      1.77961966     0.05535040     1.02128820
O     -0.76386982     1.43124482    -0.18060351
H     -0.87163012     0.35449013    -0.02549604
H     -0.71944960     1.60512064    -1.10677439
O     -0.82064674    -1.31719257     0.23675125
H      0.05486290    -0.94287740     0.10912343
H     -0.99299925    -1.45349146     1.18873842
9
water clusters train frame=321
O      1.62819280    -0.19908041     0.11859299
H      0.87892100     0.51366506     0.14676730
H      1.71954459    -0.15758850     1.02242076
O     -0.89901079     1.24917667    -0.02589442
H     -0.71551269     0.42134309    -0.21127139
H     -0.77669583     1.70161401    -0.96991683
O     -0.76195393    -1.39592634     0.04274382
H      0.10985553    -0.84765676    -0.01781425
H     -0.85308146    -1.43160913     1.10177057
9
water clusters train frame=322
O      1.57285431    -0.02925483     0.11432281
H      0.75748028     0.44814712     0.11484013
H      1.71645374    -0.13518971     1.11535102
O     -0.72692867     1.32032895    -0.20331613
H     -0.80838819     0.36871683    -0.10748743
H     -0.71801827     1.52737587    -1.05767806
O     -0.83184082    -1.38276159     0.17656462
H     -0.01047702    -0.92881205     0.11340522
H     -0.96383544    -1.47688704     0.97493437
9
water clusters train frame=323
O      1.61473359    -0.07970867     0.17296200
H      0.70598159     0.53905955     0.09541775
H      1.66917238    -0.14393324     1.09783449
O     -0.84604446     1.48357674    -0.15363862
H     -0.75750064     0.48485226    -0.05901718
H     -0.83167613     1.59075258    -1.00192290
O     -0.89953386    -1.38475467     0.15446460
H      0.03844895    -0.85851032     0.06703604
H     -0.92160274    -1.56884904     1.09048321
9
water clusters train frame=324
O      1.56903955     0.07992922     0.17006446
H      0.82930601     0.41674648     0.12284654
H      1.72265865    -0.10533148     1.04461297
O     -0.73302395     1.43402222     0.00412718
H     -0.76137279     0.50990850    -0.21846912
H     -0.88847803     1.45552088    -1.05884028
O     -0.85345094    -1.37818976     0.32869560
H     -0.00833133    -0.75495062     0.11904838
H     -1.00704683    -1.41707541     1.18631527
9
water clusters train frame=325
O      1.64552491     0.01824964     0.18213076
H      0.72130282     0.44860712     0.00717531
H      1.71485260    -0.12794305     1.08194597
O     -0.84752023     1.34250113    -0.12099303
H     -0.84681032     0.41262611    -0.07388556
H     -0.83337401     1.55346032    -1.15484152
O     -0.85303382    -1.36128417     0.23704727
H      0.02939673    -0.85661636     0.09958257
H     -0.99114516    -1.51040707     1.10991940
9
water clusters train frame=326
O      1.54944287     0.00371654     0.07681763
H      0.76687589     0.45615860     0.06662946
H      1.75380226    -0.10448516     1.03283311
O     -0.79092974     1.36992957    -0.15042761
H     -0.75381679     0.38799401    -0.09308714
H     -0.84493862     1.54298390    -1.00819641
O     -0.71830484    -1.30959802     0.17507904
H      0.05630626    -0.99655777     0.07900412
H     -0.97712324    -1.43456140     1.04855448
9
water clusters train frame=327
O      1.45720802     0.06574960     0.21213528
H      0.58687447     0.54968444     0.11419012
H      1.62111369    -0.05914319     0.99680303
O     -0.84139149     1.42044912    -0.08995646
H     -0.94649733     0.36000596    -0.15225022
H     -0.61596806     1.54145838    -1.16737681
O     -0.87182150    -1.38032829     0.18681712
H      0.07611239    -0.85190341     0.14351733
H     -0.96394330    -1.46411386     1.03750052
9
water clusters train frame=328
O      1.64834794     0.07570871     0.22908569
H      0.77145140     0.48720585     0.11808556
H      1.73807067    -0.03386267     1.13147941
O     -0.83754937     1.36598739    -0.15220802
H     -0.79199873     0.47686104    -0.02529864
H     -0.79436670     1.63179186    -1.11923564
O     -0.79954532    -1.45706232     0.14992053
H      0.01310390    -0.90014375     0.13953222
H     -1.02663705    -1.45510753     1.11055115
9
water clusters train frame=329
O      1.57011155    -0.01896474     0.19785802
H      0.81822492     0.55258484     0.03990977
H      1.70576329    -0.08352046     1.02886817
O     -0.73626997     1.34787912    -0.15284803
H     -0.65776526     0.44463266    -0.18408095
H     -0.90630442     1.64895247    -1.07429248
O     -0.72578667    -1.32215622     0.14437390
H      0.05101549    -0.82196190    -0.00935978
H     -0.92276391    -1.53325190     1.04256188
9
water clusters train frame=330
O      1.64580820    -0.06563918     0.18229911
H      0.67724257     0.47033526     0.01798489
H      1.88775311    -0.03866509     1.10127648
O     -0.84153417     1.41956770    -0.06984334
H     -0.82520140     0.30974137    -0.10483004
H     -0.82222226     1.54736148    -1.17826632
O     -0.89709897    -1.38164596     0.16351226
H      0.08170031    -1.01527672     0.15706455
H     -1.10252078    -1.56336390     1.07687354
9
water clusters train frame=331
O      1.63864808     0.05454839     0.19326772
H      0.72188714     0.50822746     0.04010735
H      1.77058126    -0.08531024     1.10798746
O     -0.74845967     1.33035067    -0.14221278
H     -0.84994905     0.42252041    -0.04303502
H     -0.76648219     1.59840119    -1.07999303
O     -0.89942197    -1.36709884     0.15555669
H      0.04266171    -0.88857934     0.02342451
H     -0.97355698    -1.44319902     1.09671718
9
water clusters train frame=332
O      1.62126068     0.00438959     0.10652004
H      0.68683533     0.44972608     0.15342730
H      1.70412706    -0.12558634     1.06697950
O     -0.87398756     1.44593883    -0.10992163
H     -0.79536753     0.33135129    -0.08751879
H     -0.76280978     1.44046272    -1.07203699
O     -0.82215191    -1.34307075     0.01602414
H     -0.03482804    -0.89336627     0.20139684
H     -0.93100599    -1.48917441     1.08784203
9
water clusters train frame=333
O      1.53098143     0.04081370     0.16747815
H      0.62280109     0.48689085     0.08728836
H      1.65848181    -0.03449201     1.01687673
O     -0.77133266     1.33207997    -0.06081723
H     -0.78371076     0.29480357    -0.14966376
H     -0.58917460     1.49656908    -1.22122686
O     -0.78383098    -1.43413255     0.15008728
H     -0.04336115    -0.84025212     0.05132725
H     -0.97892380    -1.42769658     1.07525078
9
water clusters train frame=334
O      1.59353609    -0.01769146     0.10259222
H      0.75678920     0.45473834     0.10506174
H      1.75911511    -0.10720939     1.10216640
O     -0.79068307     1.40995490    -0.22921298
H     -0.82168197     0.45162326    -0.09595996
H     -0.83815215     1.55999405    -1.08906571
O     -0.82323527    -1.38500045     0.19564025
H      0.01249029    -0.88683848     0.12262363
H     -0.94995984    -1.48151142     1.11015741
9
water clusters train frame=335
O      1.58287560     0.04750098     0.12869710
H      0.79475577     0.60260399     0.08433440
H      1.68387588    -0.11590932     1.09342973
O     -0.77895452     1.39715226    -0.20296686
H     -0.76543813     0.40299312    -0.10951305
H     -0.90589176     1.63796576    -0.97795120
O     -0.70347455    -1.41022769     0.15288354
H      0.00455963    -0.79147845     0.15442985
H     -0.93357145    -1.53505283     1.21521714
9
water clusters train frame=336
O      1.69281155    -0.07943106     0.11149224
H      0.82674721     0.37326792     0.10265072
H      1.74932705    -0.09315419     0.98849277
O     -0.97790375     1.46800919    -0.16028731
H     -0.73849352     0.43757001    -0.17836640
H     -0.78656032     1.49708778    -1.22004220
O     -0.66289250    -1.49686955     0.11272421
H     -0.08228727    -0.98554517     0.04665066
H     -1.06491936    -1.48887125     1.15635106
9
water clusters train frame=337
O      1.56443950    -0.02014614     0.12628473
H      0.73796822     0.46889084     0.05703385
H      1.69984369    -0.11299989     1.14718830
O     -0.81259950     1.41193228    -0.11838478
H     -0.72618031     0.41179369    -0.05913583
H     -0.82674354     1.61536459    -1.08187434
O     -0.79955388    -1.36833365     0.15840492
H     -0.04730748    -0.89383784     0.06334962
H     -0.97697323    -1.49510982     1.04734981
9
water clusters train frame=338
O      1.60924798    -0.02098148     0.14866566
H      0.84466601     0.47519311     0.16588492
H      1.82221662    -0.12991167     1.12341581
O     -0.76806789     1.40764022    -0.10760965
H     -0.77107761     0.42066508    -0.08749367
H     -0.77730910     1.59671414    -1.02264233
O     -0.75056462    -1.39783593     0.19699413
H      0.03237221    -0.89866229     0.07601321
H     -1.02528257    -1.46777516     1.07545898
9
water clusters train frame=339
O      1.63710297     0.09839606     0.11889980
H      0.75129031     0.51017233    -0.06522344
H      1.75075403    -0.14240600     1.18484168
O     -0.83065559     1.43632155    -0.19042924
H     -0.76132301     0.51172062     0.01058586
H     -0.62391242     1.46915084    -1.01170103
O     -0.74167508    -1.35564150     0.08208271
H      0.00578763    -1.08598003     0.13562050
H     -0.94673347    -1.45826910     1.09299603
9
water clusters train frame=340
O      1.58102907     0.01949602     0.20613793
H      0.75814445     0.51270994     0.10717111
H      1.70465907    -0.05027762     0.99280379
O     -0.80853291     1.35599917    -0.09109460
H     -0.78190429     0.48645357    -0.15130710
H     -0.81279811     1.50898243    -1.02658013
O     -0.81698050    -1.36123566     0.20753566
H      0.08600523    -0.87907362     0.18074201
H     -0.95737104    -1.48793387     1.04676599
9
water clusters train frame=341
O      1.62392529     0.00933783     0.16183459
H      0.72919504     0.36806540     0.14648960
H      1.71825300    -0.17625998     1.00144483
O     -0.79017842     1.41795398    -0.16606501
H     -0.81070943     0.36980039    -0.13790446
H     -0.74200354     1.47484754    -1.14070294
O     -0.84939995    -1.35926041     0.13271918
H      0.05324830    -0.97424450     0.16528629
H     -0.93575182    -1.32660535     1.03777438
9
water clusters train frame=342
O      1.66501627    -0.04237305     0.22406559
H      0.76103972     0.54871643     0.19607294
H      1.79315630     0.05804997     1.04751351
O     -0.95599490     1.29472456    -0.28616949
H     -0.75273175     0.39943899    -0.09423803
H     -0.74076445     1.60245370    -1.14411909
O     -0.80916496    -1.39359257     0.18269380
H     -0.01284789    -0.93252706    -0.00354701
H     -0.86392895    -1.47491089     1.24064674
9
water clusters train frame=343
O      1.59803796     0.00790959     0.18780956
H      0.72303598     0.41664571     0.06225847
H      1.73674208    -0.11040816     1.13501955
O     -0.81009900     1.39289590    -0.21754244
H     -0.76474320     0.49158678    -0.14712538
H     -0.75666865     1.56549155    -1.11528107
O     -0.79139146    -1.42655450     0.16400061
H      0.00650155    -0.92719427     0.06763241
H     -0.97331467    -1.47482360     1.12860656
9
water clusters train frame=344
O      1.56433407    -0.15251085     0.07770229
H      0.66192136     0.46604294     0.05852192
H      1.76892091    -0.06326378     1.21697952
O     -0.86351660     1.30184047    -0.19478162
H     -0.85019140     0.41966038    -0.10661864
H     -0.76243305     1.61734667    -1.08516363
O     -0.75966160    -1.33998313     0.01363757
H      0.05180453    -0.83904077     0.05457272
H     -1.06387646    -1.54492671     1.07934341
9
water clusters train frame=345
O      1.55194127    -0.08135444     0.22301010
H      0.64617803     0.27555158     0.14822555
H      1.82419837    -0.15259649     1.05007860
O     -0.81043617     1.30841439    -0.21250539
H     -0.78760945     0.44339073    -0.02878011
H     -0.74207248     1.50442600    -1.11626196
O     -0.81736938    -1.30230152     0.15158318
H      0.05395246    -0.92079268     0.11300727
H     -0.96957713    -1.63263033     1.07630793
9
water clusters train frame=346
O      1.66984150     0.02657083     0.12413591
H      0.73890526     0.54177304     0.19215933
H      1.67453823    -0.07815703     1.09311257
O     -0.79833979     1.34196245    -0.10269264
H     -0.73588031     0.43784675    -0.06140994
H     -0.82225331     1.62760464    -1.09887858
O     -0.78493569    -1.36070606     0.08220934
H      0.03314840    -0.92940418     0.06358341
H     -0.99363647    -1.46989223     1.10390423
9
water clusters train frame=347
O      1.62699386    -0.03314531     0.23374965
H      0.80500820     0.37856311     0.12364764
H      1.77018724    -0.17863794     1.01780757
O     -0.87977831     1.32756562    -0.13950343
H     -0.78876594     0.48124614    -0.05152005
H     -0.79962245     1.44992524    -1.08070900
O     -0.79619706    -1.46730546     0.07901140
H      0.03436638    -1.04666616     0.03455729
H     -0.94840804    -1.51461884     1.07829755
9
water clusters train frame=348
O      1.78597193    -0.01515859     0.11274104
H      0.73597358     0.40615331     0.11415103
H      1.73341385    -0.05920557     0.89602581
O     -0.80778604     1.36997195    -0.20349051
H     -0.77036150     0.28052137    -0.15085071
H     -0.70378165     1.49965925    -1.15538230
O     -0.66808400    -1.42493394     0.06460405
H     -0.04633621    -0.96370488     0.14153640
H     -0.83784003    -1.47710503     1.05605317
9
water clusters train frame=349
O      1.60175771     0.02285458     0.12903351
H      0.76295092     0.46310241     0.07027244
H      1.70711096    -0.09604197     1.07523601
O     -0.78747210     1.35831934    -0.10268953
H     -0.75533418     0.42682812    -0.04978290
H     -0.91865662     1.55443738    -1.13435681
O     -0.74984945    -1.40011386     0.18633661
H      0.05903326    -0.91968435     0.08465500
H     -1.02021904    -1.46617552     1.17917526
9
water clusters train frame=350
O      1.63653530     0.07882686     0.08931306
H      0.75587619     0.43028063     0.04925666
H      1.79310571    -0.01298332     1.03853173
O     -0.84236877     1.51961144    -0.22677191
H     -0.83070178     0.43581623    -0.14992092
H     -0.82380997     1.51047748    -1.06855769
O     -0.83357779    -1.38744048    -0.01645532
H      0.03782964    -1.05739669     0.06308666
H     -1.07708812    -1.48562351     1.12596178
9
water clusters train frame=351
O      1.61850027    -0.03475146     0.20187576
H      0.81703224     0.52280223     0.11884516
H      1.71042493     0.05676743     1.18342105
O     -0.93424080     1.45665950    -0.21054739
H     -0.76751572     0.24604716    -0.18115751
H     -0.86442545     1.61269060    -1.05047269
O     -0.76361364    -1.24948633     0.12663416
H      0.00944232    -0.89334664     0.08614624
H     -0.89146281    -1.53889339     1.05216864
9
water clusters train frame=352
O      1.51281041     0.06167418     0.16582759
H      0.75732537     0.47250900     0.09242211
H      1.69942742    -0.15245216     1.06822359
O     -0.81142749     1.34205599    -0.14304723
H     -0.79268518     0.40375644    -0.09532477
H     -0.81910810     1.54265024    -1.12356150
O     -0.76685428    -1.42591987     0.19908570
H      0.03387099    -0.97423588     0.17549607
H     -0.93325353    -1.46363048     1.09162321
9
water clusters train frame=353
O      1.53199893     0.00636858     0.15544503
H      0.72053629     0.48239627     0.05979907
H      1.85507322    -0.17732576     1.00620193
O     -0.78529860     1.38912868    -0.23812039
H     -0.79510861     0.28201632    -0.07691319
H     -0.73247739     1.47020911    -1.14288034
O     -0.81136006    -1.39163291     0.11092108
H      0.05490178    -0.89979828     0.15972049
H     -1.01950087    -1.44263057     1.04992391
9
water clusters train frame=354
O      1.67171299     0.04613283     0.11305840
H      0.83408534     0.52269695     0.09473505
H      1.82785598    -0.09398063     0.96734954
O     -0.74333548     1.48026359    -0.06684884
H     -0.82232634     0.55300899     0.07372967
H     -0.75580925     1.60264768    -1.00626583
O     -0.77002147    -1.45867046     0.22190063
H      0.00311903    -1.01042770     0.01007779
H     -0.87806076    -1.44770308     1.02610927
9
water clusters train frame=355
O      1.57648649     0.01798699     0.10516022
H      0.79358880     0.42335932     0.11357564
H      1.77895694    -0.09858031     1.14689466
O     -0.83781450     1.37804770    -0.18864897
H     -0.84561498     0.46603310    -0.10332991
H     -0.83637931     1.52517012    -1.07299009
O     -0.81826206    -1.30552562     0.17845593
H      0.12128486    -0.94732466     0.10708057
H     -0.97366998    -1.54132629     1.10688982
9
water clusters train frame=356
O      1.61149050    -0.07344069     0.18606781
H      0.71108224     0.47519279     0.05976193
H      1.77079800    -0.04204496     1.14678099
O     -0.68647347     1.36027547    -0.23587038
H     -0.79268224     0.35852456    -0.18038133
H     -0.80925748     1.53717137    -1.07668810
O     -0.73746073    -1.38456431     0.17340677
H     -0.01808195    -0.88072189     0.12961603
H     -1.00082646    -1.48031314     1.13079710
9
water clusters train frame=357
O      1.53205595     0.08864705     0.09374059
H      0.77427423     0.45546724     0.13110207
H      1.80011104    -0.06423246     1.01196630
O     -0.71659689     1.36595007    -0.13250273
H     -0.84620374     0.30276684    -0.04855923
H     -0.89022034     1.55731816    -1.05467495
O     -0.91380872    -1.27658611     0.15256349
H     -0.05244480    -1.00823320     0.03558531
H     -0.89803688    -1.49583390     0.97174142
9
water clusters train frame=358
O      1.63602408     0.00794522     0.24408295
H      0.79221095     0.52158321     0.17543806
H      1.79893923    -0.10103612     1.04199021
O     -0.78281153     1.35197382    -0.13188360
H     -0.76297387     0.39588685     0.02521854
H     -0.77232772     1.56677792    -1.05331734
O     -0.86360312    -1.38299664     0.14735336
H      0.01834872    -0.92434228    -0.01700542
H     -0.93917064    -1.42734020     1.14654844
9
water clusters train frame=359
O      1.61404805     0.03169675     0.11235585
H      0.74035553     0.49875668     0.11354350
H      1.77202544    -0.11271352     1.09127572
O     -0.78772122     1.30969757    -0.23834126
H     -0.83995874     0.42960188    -0.11365408
H     -0.77731627     1.61854064    -1.25820815
O     -0.87777708    -1.42272980     0.09337700
H      0.00605351    -0.92443148     0.13184488
H     -0.88831970    -1.46544485     1.09170711
9
water clusters train frame=360
O      1.63943340    -0.01684975     0.10102359
H      0.89252192     0.61918930     0.09391772
H      1.74239475    -0.10442659     1.14763477
O     -0.93954380     1.37452182    -0.09683718
H     -0.82446884     0.53782227    -0.05699528
H     -0.81687145     1.33568440    -1.10662936
O     -0.76799082    -1.40450799     0.21799397
H      0.00606764    -0.89225646     0.01959844
H     -0.95706126    -1.49521168     0.94915319
9
water clusters train frame=361
O      1.49009554     0.06827689     0.18204395
H      0.79815546     0.43016706     0.08582893
H      1.75033149    -0.09237804     1.07520091
O     -0.76425667     1.36930871    -0.14515350
H     -0.81249358     0.40213066    -0.12422700
H     -0.78984797     1.60668166    -1.09467514
O     -0.82281376    -1.33745391     0.16209877
H      0.06260898    -0.87120448     0.08279939
H     -0.96649207    -1.42245847     1.13435122
9
water clusters train frame=362
O      1.57529196     0.12799907     0.11913384
H      0.83550600     0.33313733    -0.03375257
H      1.71099820    -0.06444066     1.08804647
O     -0.80235573     1.33519148    -0.16542522
H     -0.83350649     0.53377981    -0.10956175
H     -0.66846617     1.52966100    -1.09354394
O     -0.83775092    -1.41888382     0.13793668
H      0.01002424    -0.70328784     0.12659038
H     -0.82555678    -1.46482914     1.05616119
9
water clusters train frame=363
O      1.58297422    -0.00626436     0.12868514
H      0.69386904     0.36337227    -0.01909945
H      1.70804538    -0.15440916     1.03373016
O     -0.81089297     1.38063645    -0.18243374
H     -0.74506595     0.33903052    -0.08044184
H     -0.78320257     1.65914370    -1.07677696
O     -0.68029590    -1.37825270     0.02726026
H      0.05924490    -0.98722351     0.09267987
H     -0.81275946    -1.41877584     1.10929935
9
water clusters train frame=364
O      1.59873555    -0.04497482     0.16594230
H      0.74457900     0.48115045     0.13877170
H      1.72267646    -0.12259689     1.11033903
O     -0.80994439     1.47930339    -0.11346847
H     -0.81053398     0.39032193    -0.07060759
H     -0.80015066     1.58618698    -1.07178854
O     -0.82963701    -1.36475361     0.15660973
H      0.01630999    -0.88512749     0.08110841
H     -0.93296957    -1.40424043     1.07431931
9
water clusters train frame=365
O      1.67216807    -0.04396282     0.15093750
H      0.66889046     0.53339597     0.10573594
H      1.70715163    -0.15893774     1.08850615
O     -0.81594018     1.29317545    -0.04398425
H     -0.75626956     0.43911045    -0.06634674
H     -0.69769447     1.54312166    -1.11789567
O     -0.83500916    -1.45781155     0.19830755
H      0.01428447    -0.78027883     0.11376302
H     -0.94060962    -1.48659284     1.07080369
9
water clusters train frame=366
O      1.65690438     0.06540721     0.21110074
H      0.78728401     0.35321265     0.25864724
H      1.80481416    -0.14582788     1.10237136
O     -0.69418078     1.43341224    -0.11753595
H     -0.75351645     0.43770702    -0.10358964
H     -0.71965437     1.46983381    -1.11585515
O     -0.81927251    -1.47375073     0.19975162
H      0.06370699    -1.01238237     0.15607142
H     -0.95827918    -1.37641927     1.09727082
9
water clusters train frame=367
O      1.57652668     0.01403941     0.12907019
H      0.74284780     0.47490031     0.16679266
H      1.81527267    -0.06633435     1.10344311
O     -0.78114064     1.31510206    -0.15529329
H     -0.83644046     0.51849818    -0.08191161
H     -0.78926886     1.52294195    -1.10753491
O     -0.76024904    -1.32310614     0.19241004
H      0.04961683    -0.94577757     0.11849979
H     -0.92946382    -1.45797607     1.05484078
9
water clusters train frame=368
O      1.63108503    -0.13519497     0.08666793
H      0.72492662     0.43368017     0.00070269
H      1.71099915    -0.09499499     1.08159434
O     -0.87588197     1.45855740    -0.13635878
H     -0.89431092     0.41571814    -0.12086058
H     -0.76799088     1.64361252    -1.02822812
O     -0.88333984    -1.40505456     0.06791449
H      0.09031481    -0.85360280     0.07827725
H     -0.95072340    -1.54782415     1.09032312
9
water clusters train frame=369
O      1.64083761    -0.02338849     0.18068358
H      0.63213730     0.42930943     0.24012711
H      1.78624771     0.05971940     1.04455068
O     -0.70676143     1.46188373    -0.17681556
H     -0.85658886     0.39242597    -0.18846747
H     -0.67713389     1.51616755    -1.10966959
O     -0.76827710    -1.33776563     0.17557582
H      0.13322201    -0.90735015     0.02021253
H     -1.03447460    -1.50856403     1.07054564
9
water clusters train frame=370
O      1.61051722    -0.01904017     0.13484388
H      0.81261910     0.44952955     0.07486236
H      1.74244026    -0.15211535     1.05501955
O     -0.77339084     1.42225258    -0.17812743
H     -0.78686611     0.39808362    -0.09608586
H     -0.77117232     1.66506788    -1.00883631
O     -0.82986072    -1.34010762     0.14446686
H      0.07161319    -0.95244048     0.18098855
H     -0.96489205    -1.41912295     1.08078558
9
water clusters train frame=371
O      1.58523905     0.00681994     0.14117379
H      0.79751979     0.45225620     0.04387254
H      1.73757900    -0.03456333     1.18618165
O     -0.76311113     1.34332619    -0.04521045
H     -0.78553182     0.44713124    -0.11932643
H     -0.68966343     1.61832221    -1.07490554
O     -0.77302869    -1.44283068     0.20193120
H      0.03439382    -0.87447262     0.11309687
H     -0.95347973    -1.43232543     1.22074967
9
water clusters train frame=372
O      1.49019347     0.09869598     0.04390507
H      0.81588324     0.44513619     0.11571243
H      1.81449169    -0.11401400     1.08591510
O     -0.84737043     1.54954869    -0.10867165
H     -0.76708540     0.37064740    -0.05610977
H     -0.79156038     1.61971204    -1.17078034
O     -0.88907035    -1.43323083     0.09123716
H      0.02097748    -0.84735511     0.15138899
H     -0.90005388    -1.46404576     0.95764292
9
water clusters train frame=373
O      1.59853292     0.00424742     0.15463992
H      0.78082376     0.48782714     0.10360852
H      1.75917160    -0.06876634     1.13524436
O     -0.76856687     1.34982166    -0.12441293
H     -0.82419383     0.41887229    -0.07290406
H     -0.79527462     1.58612420    -1.15460901
O     -0.78582474    -1.37375852     0.06090700
H      0.11015533    -0.93295508     0.12390399
H     -0.97014651    -1.52259635     1.07132860
9
water clusters train frame=374
O      1.61369158    -0.02267078     0.25981157
H      0.70032046     0.54341847     0.15748988
H      1.78389233    -0.03880754     1.16715681
O     -0.74523866     1.40191011    -0.13169473
H     -0.85087141     0.51843334    -0.13655413
H     -0.84141933     1.61495042    -1.08507943
O     -0.76629799    -1.32875156     0.10549167
H      0.10089125    -0.93983229     0.04722097
H     -0.94640252    -1.37421508     1.08067230
9
water clusters train frame=375
O      1.58750065    -0.08570423     0.09943909
H      0.81945888     0.40156436     0.03980880
H      1.75874822    -0.21551866     1.09430151
O     -0.78787242     1.46016077    -0.16925017
H     -0.85237121     0.38829386    -0.11409758
H     -0.81637883     1.58034558    -1.19590051
O     -0.93726247    -1.37739688     0.08696528
H     -0.13056961    -0.94194656     0.14645884
H     -1.02181415    -1.42702252     0.95174531
9
water clusters train frame=376
O      1.59832748     0.04461956     0.16275598
H      0.76197180     0.48334520     0.08865715
H      1.78952176    -0.10201113     1.06500905
O     -0.82395941     1.35714648    -0.13330475
H     -0.86790225     0.41870764    -0.13747943
H     -0.75914682     1.60317942    -1.06500824
O     -0.78838870    -1.36822088     0.11873948
H      0.11312616    -0.92397998     0.17122251
H     -0.95808330    -1.50578514     1.07193202
9
water clusters train frame=377
O      1.71749582    -0.04623690     0.14737490
H      0.67760983     0.47577352     0.18073808
H      1.75217578    -0.03820743     0.99192919
O     -0.87298482     1.33636195    -0.03997511
H     -0.82129727     0.34837307    -0.13882398
H     -0.91111281     1.60858219    -1.05723532
O     -0.87142244    -1.36518425     0.26077007
H     -0.00786051    -0.80483252     0.05057485
H     -0.86776682    -1.43083430     1.23439559
9
water clusters train frame=378
O      1.54365633    -0.12754118     0.21905004
H      0.72789042     0.60823167     0.18311276
H      1.78322412    -0.24264578     1.13783001
O     -0.73928182     1.32343118    -0.08573783
H     -0.86071188     0.46265282    -0.02254968
H     -0.76076360     1.57523774    -1.12301964
O     -0.72623700    -1.46946192     0.10219609
H     -0.01612097    -0.92293177     0.24970901
H     -1.08727286    -1.36904758     1.13809523
9
water clusters train frame=379
O      1.56875423     0.03379623     0.11821667
H      0.83657354     0.50289392     0.08762466
H      1.80013121    -0.04501576     1.03031968
O     -0.77053114     1.40857461    -0.19080118
H     -0.77323090     0.40899443    -0.13284782
H     -0.76276675     1.57542339    -1.02989512
O     -0.78312342    -1.38119041     0.16346405
H      0.00001624    -0.93046721     0.08761234
H     -0.97282178    -1.49148226     1.04963412
9
water clusters train frame=380
O      1.60378305     0.00538178     0.06948507
H      0.62546951     0.56788689     0.12309565
H      1.63503580    -0.02183967     1.12049880
O     -0.83598212     1.36162476    -0.02938428
H     -0.74197524     0.42719229    -0.11658043
H     -0.74108673     1.57592153    -1.10867464
O     -0.81425598    -1.40953493     0.12434011
H      0.00727714    -0.90802880     0.07514375
H     -0.93562837    -1.46277469     1.18024530
9
water clusters train frame=381
O      1.57485662     0.06662535     0.08375488
H      0.92435461     0.44924867     0.11738501
H      1.80400884    -0.07651847     1.13143780
O     -0.83609795     1.33517295    -0.21947116
H     -0.70783324     0.46825387    -0.19810554
H     -0.82684049     1.63387989    -1.03753206
O     -0.79877981    -1.31664615     0.11391162
H      0.10117974    -0.74186348     0.26090038
H     -0.91903914    -1.55731961     1.25469381
9
water clusters train frame=382
O      1.63845873     0.06923395     0.10296454
H      0.70767380     0.46194440     0.09589909
H      1.77485697    -0.09784518     1.11185974
O     -0.83465705     1.39643000    -0.21308692
H     -0.76439346     0.46855936    -0.08361728
H     -0.82119900     1.54957919    -1.10728274
O     -0.82674646    -1.45100046     0.05371068
H      0.09520506    -0.87756151     0.06100364
H     -0.92588041    -1.49809867     1.02732391
9
water clusters train frame=383
O      1.51376647    -0.03962764     0.05827810
H      0.76370706     0.41439412     0.12591919
H      1.79696767     0.03907252     1.07349732
O     -0.72950346     1.37028952    -0.20710156
H     -0.80916756     0.44360494    -0.05268981
H     -0.71413802     1.59965225    -1.17010321
O     -0.76279468    -1.42573879     0.20628002
H      0.00601085    -0.94133930     0.02367458
H     -0.97043193    -1.41587097     1.02517004
9
water clusters train frame=384
O      1.56820729     0.19217875     0.26236894
H      0.73093649     0.59416344     0.10372464
H      1.73866483    -0.10246398     1.22497216
O     -0.95172085     1.37060095    -0.03122566
H     -0.93692489     0.28601348    -0.19609565
H     -0.87818832     1.67601108    -1.12435254
O     -0.81422674    -1.47361026     0.24917038
H      0.11262017    -0.81229918     0.03423539
H     -0.93674280    -1.42161144     1.11749858
9
water clusters train frame=385
O      1.61060222     0.06496173     0.13449401
H      0.79600461     0.44622350     0.11663924
H      1.70743988    -0.05428019     1.08846797
O     -0.77981339     1.39470189    -0.13589661
H     -0.80625410     0.40631028    -0.13287934
H     -0.76092894     1.49332361    -1.07810477
O     -0.82728205    -1.28946869     0.15905027
H     -0.02900429    -0.88062772     0.08767538
H     -0.96134875    -1.53404893     0.98304537
9
water clusters train frame=386
O      1.57310271     0.03340349     0.06195335
H      0.74136839     0.50069533    -0.08871202
H      1.77123492    -0.09513634     1.13232478
O     -0.84273704     1.41839038    -0.16917803
H     -0.81355985     0.54953697    -0.08546873
H     -0.76476922     1.55643688    -1.07842337
O     -0.84844990    -1.29663912     0.19386418
H     -0.05391308    -0.91160432     0.15815399
H     -0.92790942    -1.46426371     1.00786573
9
water clusters train frame=387
O      1.49782178    -0.03253219     0.16203766
H      0.80115129     0.38075845    -0.00917591
H      1.70436720    -0.04019408     1.18479483
O     -0.78317169     1.31636722    -0.15771097
H     -0.74049911     0.44291904    -0.07458761
H     -0.79520624     1.51022897    -0.91252967
O     -0.80284962    -1.44864900     0.03916841
H      0.00677479    -0.93122163     0.14445313
H     -0.95409764    -1.45585229     1.03036870
9
water clusters train frame=388
O      1.59502934    -0.05379827     0.18400001
H      0.72283865     0.54340744     0.07503634
H      1.71709571    -0.06713762     1.13356297
O     -0.80594694     1.37824148    -0.12035175
H     -0.72063256     0.45288002    -0.07597440
H     -0.86615840     1.62894809    -1.07452455
O     -0.81959341    -1.35159673     0.16444193
H     -0.05888419    -0.92148877     0.11866959
H     -1.07036480    -1.45249424     1.06503928
9
water clusters train frame=389
O      1.60008872     0.03584594     0.23930214
H      0.73623676     0.46341179     0.12506031
H      1.82576975    -0.20204436     1.13258510
O     -0.73870524     1.34145653    -0.17594081
H     -0.84170026     0.33231364    -0.10975307
H     -0.83804613     1.69682001    -1.04657514
O     -0.84281475    -1.37355381     0.00849287
H      0.01271654    -0.80666715     0.06321462
H     -0.92223804    -1.49776119     1.16201327
9
water clusters train frame=390
O      1.56410740    -0.04903283     0.19375976
H      0.72225264     0.47739099    -0.00595585
H      1.63078898    -0.05183605     1.09962477
O     -0.78048289     1.43075938    -0.03278731
H     -0.68914180     0.31910188    -0.15026095
H     -0.86320018     1.51962124    -1.01529896
O     -0.76161175    -1.38279075     0.09233710
H      0.04292792    -0.86595749     0.15119534
H     -0.93908028    -1.38031016     0.93725670
9
water clusters train frame=391
O      1.53380047    -0.03477908     0.15223583
H      0.78308066     0.45754801     0.14292643
H      1.74686113    -0.09303108     1.05751312
O     -0.80385792     1.35054841    -0.16275189
H     -0.81120042     0.42029127    -0.09329259
H     -0.78620435     1.59179712    -1.06329014
O     -0.82971330    -1.38764446     0.18794689
H      0.11026754    -0.90924014     0.02803996
H     -0.96939563    -1.50315543     1.10989909
9
water clusters train frame=392
O      1.56850349     0.00632542     0.08047056
H      0.73708384     0.52921782     0.19186150
H      1.79634619    -0.11204581     1.03002543
O     -0.78667261     1.35117778    -0.15650332
H     -0.75468728     0.44978792    -0.17963968
H     -0.73281191     1.57699645    -1.15078029
O     -0.72294249    -1.30234443     0.03373509
H      0.01090239    -0.94380964     0.04494386
H     -0.94718597    -1.48818148     1.03666395
9
water clusters train frame=393
O      1.63393607    -0.01427840     0.10950674
H      0.71943097     0.41355630     0.05728640
H      1.73253926    -0.10586863     1.20282145
O     -0.68926139     1.44348345    -0.21889137
H     -0.82576175     0.48192136    -0.08768308
H     -0.87418831     1.49314081    -1.15693764
O     -0.83286514    -1.40350487     0.15494917
H     -0.06321370    -1.01487048     0.16424007
H     -0.94316849    -1.41631666     1.00570465
9
water clusters train frame=394
O      1.63188326    -0.07222397     0.10977483
H      0.76222581     0.48569948     0.13219916
H      1.71021577    -0.07973659     1.12197703
O     -0.87711685     1.41900270    -0.16534902
H     -0.77504751     0.40609945    -0.10581616
H     -0.84408284     1.60110851    -1.10860797
O     -0.87878223    -1.40795915     0.16953610
H      0.09656670    -0.93085088     0.03632310
H     -0.97729970    -1.45531941     1.09677326
9
water clusters train frame=395
O      1.59836424     0.12059205     0.12789489
H      0.69767701     0.61387777     0.15841139
H      1.87343430    -0.05470378     1.05809503
O     -0.66149168     1.41778543    -0.08550068
H     -0.73989866     0.48384344    -0.16477876
H     -0.76098269     1.53173001    -1.11564871
O     -0.93155546    -1.37441480     0.25797029
H      0.04103565    -0.84235491     0.11337995
H     -1.00786983    -1.38182443     1.12199052
9
water clusters train frame=396
O      1.61182549     0.04724416     0.33040026
H      0.79444534     0.48425805     0.08380001
H      1.83712993    -0.01929105     1.14396018
O     -0.66628367     1.36242532    -0.03261520
H     -0.94518510     0.41439110    -0.03262901
H     -0.73439819     1.44757565    -1.04714380
O     -0.70705239    -1.40220656     0.01824024
H      0.09253730    -0.95081968     0.20935459
H     -1.01077508    -1.42253167     1.13020329
9
water clusters train frame=397
O      1.65242810     0.00221627     0.12286708
H      0.74049731     0.43256079     0.06768337
H      1.77104900    -0.04286105     1.13316481
O     -0.81043479     1.40647447    -0.15798721
H     -0.79988731     0.50876235    -0.04919572
H     -0.65289110     1.52150198    -1.08464876
O     -0.75480574    -1.35661341     0.13506523
H      0.01138561    -0.84064391     0.06234771
H     -0.93223716    -1.44910672     1.09124683
9
water clusters train frame=398
O      1.62153105     0.07278544     0.26094537
H      0.68709090     0.44942074     0.03664675
H      1.76701993    -0.09050087     1.26360576
O     -0.74207229     1.40062410    -0.17434469
H     -0.81151785     0.37685176    -0.11395743
H     -0.66892870     1.59193325    -1.17201879
O     -0.84118256    -1.31550999     0.13302806
H      0.00950697    -0.90492582     0.18827078
H     -0.96350994    -1.42682010     1.09902089
9
water clusters train frame=399
O      1.54431122     0.01274203     0.26014691
H      0.66710594     0.49319875     0.02870187
H      1.73364788    -0.16770050     1.00376000
O     -0.78366006     1.41069254    -0.10709006
H     -0.96602006     0.43655627    -0.16641389
H     -0.77596023     1.38578379    -0.97611057
O     -0.76659286    -1.40339579     0.15935031
H      0.01950959    -0.99631964     0.12792579
H     -0.90388828    -1.57443438     1.06793685
9
water clusters train frame=400
O      1.49858410    -0.04725168     0.15711254
H      0.79351743     0.52642134     0.06215106
H      1.76063196    -0.07044711     1.02413430
O     -0.79436302     1.33511809    -0.15081285
H     -0.84200482     0.43331830    -0.15585205
H     -0.79325926     1.61825456    -1.06499238
O     -0.74069565    -1.38069300     0.20437823
H      0.01053664    -0.89061634     0.08118991
H     -0.85723446    -1.40634421     1.14659012
9
water clusters train frame=401
O      1.62117674     0.07916859     0.10689113
H      0.85166607     0.48183646     0.12638824
H      1.78082650    -0.06793386     1.05601216
O     -0.72505827     1.37902881    -0.14041469
H     -0.73471182     0.46666466    -0.10666758
H     -0.83183750     1.55436864    -1.06395452
O     -0.74983688    -1.40353755     0.18963541
H      0.01087188    -0.95553214     0.24577136
H     -0.99623703    -1.33518463     1.02264101
9
water clusters train frame=402
O      1.55898031    -0.01431605     0.15571251
H      0.81800550     0.48371002     0.04366894
H      1.80469547    -0.18692329     1.18078748
O     -0.76892047     1.49470937    -0.17737007
H     -0.82279135     0.39462496    -0.02609321
H     -0.82981089     1.47929684    -1.02712327
O     -0.66895683    -1.36737221     0.15904691
H      0.07390437    -0.86660907     0.09012769
H     -0.98346344    -1.32826214     1.17700261
9
water clusters train frame=403
O      1.63998547    -0.00070114     0.13551696
H      0.84491146     0.49527648     0.14217642
H      1.71784693    -0.11293613     1.10403749
O     -0.82281811     1.40551931    -0.16849461
H     -0.76050450     0.36687061    -0.10557870
H     -0.83640166     1.57988024    -1.10076604
O     -0.76637632    -1.43123438     0.12805344
H      0.01627540    -0.91886526     0.04860408
H     -0.95713972    -1.53946309     1.05201228
9
water clusters train frame=404
O      1.61137232     0.04344256     0.14870386
H      0.83465885     0.56749758     0.13095617
H      1.73737946    -0.10429902     1.07603248
O     -0.76899922     1.32191841    -0.15021376
H     -0.80463365     0.38355685    -0.08186851
H     -0.81531098     1.51099101    -1.08570781
O     -0.83893772    -1.39891088     0.16744847
H      0.04858851    -0.93675080     0.13307301
H     -1.02719683    -1.52667976     1.08403927
9
water clusters train frame=405
O      1.63361345    -0.04605998     0.28646606
H      0.65512134     0.43512824     0.08476774
H      1.95699710    -0.04985212     1.01925372
O     -0.75180900     1.31488554    -0.29282781
H     -0.70949713     0.42278096    -0.08481400
H     -0.73475368     1.50918023    -1.03549113
O     -0.67945561    -1.34937374     0.07709432
H      0.04449922    -0.71455478     0.08408385
H     -1.00274735    -1.64812888     1.16373132
9
water clusters train frame=406
O      1.59718580     0.03602934     0.17549885
H      0.75558479     0.47154459     0.13174761
H      1.76329657    -0.08068447     1.17834453
O     -0.84505613     1.40020877    -0.19932975
H     -0.86630923     0.45080024    -0.12443446
H     -0.76586734     1.55458882    -1.11160326
O     -0.74986344    -1.36314337     0.12630676
H      0.04269498    -0.94917920     0.18361961
H     -0.91780124    -1.49152951     1.02201011
9
water clusters train frame=407
O      1.53724815     0.06874238     0.14098507
H      0.77343557     0.46341559     0.09102036
H      1.70306737    -0.09447219     1.05409124
O     -0.87266261     1.35028213    -0.01289762
H     -0.77503167     0.47789246    -0.00100863
H     -0.80124928     1.59032889    -1.04291409
O     -0.82145528    -1.36523594     0.18453456
H      0.06820168    -0.87638635     0.19958994
H     -1.00254553    -1.50778245     1.14323522
9
water clusters train frame=408
O      1.58695554    -0.02633151     0.17498505
H      0.80027960     0.60442498     0.06550226
H      1.76259725    -0.17284273     1.03471445
O     -0.81311941     1.19530603    -0.12652515
H     -0.84988104     0.35968153    -0.06081575
H     -0.86934713     1.64039179    -1.09208853
O     -0.87642273    -1.27865524     0.22158886
H      0.06538206    -0.96649828     0.19745735
H     -0.95085820    -1.65757959     1.02925843
9
water clusters train frame=409
O      1.55998162     0.07227065     0.06598137
H      0.76879481     0.41684109     0.16261237
H      1.72540839    -0.08973983     1.03030662
O     -0.83704091     1.40485467    -0.20715951
H     -0.80672046     0.47129325    -0.16973793
H     -0.75563312     1.58072319    -1.05366725
O     -0.76746095    -1.40528746     0.25147747
H      0.01290282    -0.87330055     0.09549552
H     -0.95736896    -1.50507686     1.05652418
9
water clusters train frame=410
O      1.63713220     0.00793360     0.17626807
H      0.87660068     0.41426652     0.14463775
H      1.67455511    -0.06369834     1.10731092
O     -0.76577625     1.31217242    -0.13881842
H     -0.83427977     0.36881860    -0.08800878
H     -0.89052314     1.52889011    -1.10422690
O     -0.66069580    -1.40103637     0.12300440
H     -0.03295404    -0.94597904     0.10324777
H     -0.94376894    -1.44076893     1.03842699
9
water clusters train frame=411
O      1.57858156    -0.07411092     0.12682909
H      0.72249087     0.68300043     0.25329867
H      1.82571867    -0.05148253     1.04117554
O     -0.71290996     1.39173234    -0.19178171
H     -0.91868185     0.35303516    -0.11533898
H     -0.74786310     1.50659801    -1.06905538
O     -0.79290262    -1.27135052     0.12436394
H     -0.04337700    -0.87451160     0.10803041
H     -0.98202309    -1.59507498     0.95825600
9
water clusters train frame=412
O      1.51146307    -0.00811291     0.18258693
H      0.77421163     0.44748984     0.08664101
H      1.79152895    -0.15506627     1.05219007
O     -0.74170109     1.39338091    -0.14692212
H     -0.72122174     0.42206797    -0.14234583
H     -0.80009362     1.55094781    -1.11046708
O     -0.86573571    -1.39984470     0.21519815
H      0.03076130    -0.90409702     0.04250915
H     -0.96311788    -1.46621268     1.10100174
9
water clusters train frame=413
O      1.65984273     0.08250697     0.07925545
H      0.89569981     0.38539310     0.12474432
H      1.85091452    -0.13993080     1.11152896
O     -0.66050243     1.26731431    -0.11995621
H     -0.81526268     0.32560558    -0.10174452
H     -0.81783969     1.56829811    -1.10827869
O     -0.83382102    -1.38632090     0.15100096
H     -0.00471241    -0.93596220     0.20517041
H     -0.86905644    -1.41078536     1.07987604
9
water clusters train frame=414
O      1.72710260    -0.05260037     0.07948879
H      0.84352811     0.58191872     0.05388391
H      1.71295954    -0.18982729     1.18618452
O     -0.76455743     1.33696261    -0.10001558
H     -0.80817717     0.39937992    -0.01518552
H     -0.72326881     1.46941373    -1.13370838
O     -0.78088221    -1.22394459     0.11061210
H      0.01597774    -0.82289892     0.01315759
H     -0.97031731    -1.41322199     0.97920885
9
water clusters train frame=415
O      1.64580180     0.04291080     0.14602525
H      0.77537053     0.45398679     0.08791779
H      1.75030358    -0.06080043     1.03938143
O     -0.78984298     1.40622388    -0.17188147
H     -0.80405530     0.44053958    -0.06149924
H     -0.77448181     1.58882016    -1.10676831
O     -0.83152199    -1.45670542     0.17332905
H      0.00756182    -0.87690241     0.00998234
H     -0.93513526    -1.50364786     1.08587929
9
water clusters train frame=416
O      1.50654678    -0.04458783     0.13497206
H      0.70537356     0.58671844     0.22482186
H      1.74322053    -0.08402978     1.09223351
O     -0.69322777     1.41296531    -0.17299689
H     -0.74606357     0.44257498    -0.01884465
H     -0.75678397     1.55615375    -1.10939464
O     -0.78687346    -1.33660867     0.16916041
H      0.08237626    -0.98924930     0.05669914
H     -0.97996096    -1.51346394     1.07177607
9
water clusters train frame=417
O      1.64502693     0.04146462     0.20353650
H      0.67270094     0.58278376     0.13873914
H      1.76526012    -0.09763911     1.05909165
O     -0.76975516     1.35424905    -0.12318819
H     -0.86346472     0.50947148    -0.03375532
H     -0.82018420     1.57139295    -1.10193984
O     -0.72433100    -1.34826693     0.16007762
H     -0.01880861    -0.99352687    -0.07453058
H     -1.02080881    -1.48883276     1.30488073
9
water clusters train frame=418
O      1.56001594    -0.05049096     0.18099012
H      0.81770217     0.43758600     0.09944411
H      1.76153166    -0.07751141     1.09871199
O     -0.83887406     1.45557265    -0.10516226
H     -0.81821660     0.37867301    -0.09603598
H     -0.81587264     1.53114104    -1.05634583
O     -0.71341666    -1.40999853     0.15728775
H     -0.04113801    -0.84693724     0.10701253
H     -0.90043556    -1.52807871     1.11296247
9
water clusters train frame=419
O      1.62097524     0.06977487     0.16525045
H      0.67083352     0.46139723     0.07734212
H      1.86645191    -0.15793157     1.10343446
O     -0.82117144     1.30981755    -0.10183684
H     -0.85843820     0.46069220    -0.23774891
H     -0.90064754     1.51078775    -1.05852899
O     -0.75744568    -1.45116529     0.09083220
H     -0.01389242    -0.90371250     0.28850675
H     -1.05878779    -1.44579371     1.13567988
9
water clusters train frame=420
O      1.70996080     0.05650719     0.12045566
H      0.75140085     0.65217865     0.06061633
H      1.75406380    -0.08922079     0.99263408
O     -0.91226873     1.51850906    -0.21273795
H     -0.80472097     0.43101922    -0.11251466
H     -0.90856484     1.55964734    -1.09898226
O     -0.81443756    -1.33111259     0.03521636
H      0.01589015    -0.93210944     0.20886261
H     -1.03782761    -1.57472836     1.09141509
9
water clusters train frame=421
O      1.60051499     0.09722778     0.20013588
H      0.77764034     0.45794832     0.06067809
H      1.73199710    -0.09540013     1.05907078
O     -0.79828377     1.44552232    -0.18269011
H     -0.84385400     0.39763789    -0.00551884
H     -0.79759171     1.62804539    -1.10897565
O     -0.84961620    -1.36697246     0.13582212
H      0.07181313    -0.89717527     0.03651608
H     -0.98036172    -1.51636117     1.07287327
9
water clusters train frame=422
O      1.60116165     0.05403753     0.09759555
H      0.74602079     0.51327121    -0.00036932
H      1.81624014    -0.19174126     1.08486445
O     -0.86065617     1.35292808    -0.13909317
H     -0.85490716     0.46025533    -0.16762854
H     -0.70253016     1.64086980    -1.04856225
O     -0.85884757    -1.30541028     0.09723774
H      0.09561348    -0.93624321     0.08638174
H     -1.04611082    -1.47599176     0.91311618
9
water clusters train frame=423
O      1.56707402     0.07067172     0.25822464
H      0.72356951     0.42769710    -0.00529697
H      1.79022828    -0.24855420     1.02429896
O     -0.92312425     1.29051497    -0.25345181
H     -0.77770976     0.47358613    -0.09713752
H     -0.76803733     1.64849553    -1.01472588
O     -0.89633819    -1.37249057     0.27732922
H      0.12535266    -0.84851551     0.02178034
H     -1.14845514    -1.46934769     1.17660810
9
water clusters train frame=424
O      1.60291589    -0.01552996     0.16972876
H      0.74741379     0.50168439     0.09615156
H      1.69337339    -0.10847956     1.09359891
O     -0.83027022     1.33912593    -0.14143429
H     -0.78706058     0.45736064    -0.12912723
H     -0.80804562     1.62160196    -1.03343939
O     -0.80158865    -1.41818000     0.14479193
H      0.06604677    -0.88877097     0.10176616
H     -0.99944368    -1.40042054     1.11447500
9
water clusters train frame=425
O      1.65673158    -0.03498076     0.18356239
H      0.79472632     0.55200326     0.13704964
H      1.69003685    -0.02161444     1.12145069
O     -0.86595448     1.41875263    -0.23992573
H     -0.72535423     0.50326339    -0.10414878
H     -0.83078625     1.53478704    -1.06363339
O     -0.85392446    -1.34548443     0.17927139
H      0.13542566    -0.86248672     0.16694607
H     -0.97348056    -1.47029416     1.11049975
9
water clusters train frame=426
O      1.70676864    -0.05768104     0.25110555
H      0.79825978     0.42049109     0.14257006
H      1.81311327    -0.05900361     1.11750966
O     -0.68485225     1.32250644    -0.06164588
H     -0.87898217     0.46806533    -0.14062110
H     -0.70701827     1.46956359    -1.07647304
O     -0.81987148    -1.35724849     0.17324128
H     -0.01771207    -0.93127785     0.05377708
H     -0.87945200    -1.47887277     1.10233969
9
water clusters train frame=427
O      1.61655281     0.06586564     0.18692418
H      0.72018249     0.44377031     0.05333188
H      1.71598170    -0.11465589     1.07833327
O     -0.79150899     1.37237675    -0.21154061
H     -0.79873798     0.30540890    -0.06257501
H     -0.86067129     1.50998916    -1.11351417
O     -0.88466015    -1.39287423     0.24459382
H      0.07651716    -0.98123294     0.06101372
H     -1.01298318    -1.48786970     1.04251272
9
water clusters train frame=428
O      1.54417748    -0.07453618     0.33074664
H      0.87350876     0.55692940     0.11376596
H      1.77305790    -0.10576711     1.07809622
O     -0.89055703     1.46824363    -0.13848078
H     -0.70949052     0.36853875    -0.19325681
H     -0.87934656     1.54511135    -1.02955480
O     -0.66594831    -1.36768885     0.14218277
H     -0.00239773    -0.82454463     0.17045530
H     -1.00322127    -1.51231703     1.07700708
9
water clusters train frame=429
O      1.68623041     0.02296485     0.19985824
H      0.76762894     0.52007747     0.17368337
H      1.76788431    -0.11593632     1.10692203
O     -0.83175170     1.31112029    -0.12298526
H     -0.83126550     0.30073280     0.02438270
H     -0.61341613     1.59471630    -1.11113730
O     -0.73625431    -1.36272087     0.14025509
H      0.00677040    -0.78238991     0.23297439
H     -0.91003076    -1.36701660     0.96260488
9
water clusters train frame=430
O      1.54212935    -0.02782857     0.21946704
H      0.78323352     0.49692749     0.13998684
H      1.76460319    -0.10717392     1.08498953
O     -0.84693964     1.35390987    -0.07731688
H     -0.73536040     0.48417777    -0.05777844
H     -0.80757884     1.59132990    -1.13377562
O     -0.78677984    -1.39265349     0.14563059
H      0.05017421    -0.93443052     0.12203239
H     -0.92425333    -1.45239411     1.11932431
9
water clusters train frame=431
O      1.55567416    -0.04307961     0.23857062
H      0.73380266     0.54212907     0.01936503
H      1.74008399    -0.13085211     0.98872175
O     -0.84165855     1.37521125    -0.27373915
H     -0.79677158     0.41402767    -0.11769070
H     -0.77741902     1.50495655    -1.08029471
O     -0.87476133    -1.43630743     0.13417633
H      0.04043243    -1.00107908     0.15691138
H     -0.84092293    -1.36508002     1.09639397
9
water clusters train frame=432
O      1.58692509    -0.11224264     0.08834991
H      0.74953949     0.55523365     0.30148690
H      1.86817285    -0.12906290     1.08740153
O     -0.89807630     1.44537569    -0.11299147
H     -0.80020598     0.47471858     0.08137334
H     -0.77103690     1.65810861    -1.05785693
O     -0.78609295    -1.22404021     0.15584080
H     -0.01907991    -0.80167394    -0.00217919
H     -1.02936759    -1.38014879     1.13448888
9
water clusters train frame=433
O      1.66079741     0.06391795     0.03680452
H      0.84284672     0.47880955     0.10244894
H      1.72043468    -0.09132639     1.08794730
O     -0.76086391     1.31076252    -0.23471497
H     -0.91073219     0.41894783    -0.13271964
H     -0.80815578     1.56542580    -1.02066557
O     -0.77033589    -1.40318756     0.17663047
H      0.06468061    -0.89358185     0.06644801
H     -0.95480458    -1.43232064     1.04731566
9
water clusters train frame=434
O      1.68748115    -0.07138571     0.22465700
H      0.81290420     0.43603928     0.06043212
H      1.78205239    -0.01101504     1.20148372
O     -0.78704711     1.46959085    -0.17954932
H     -0.80286736     0.37896907    -0.15225607
H     -0.63785375     1.68561055    -1.11079629
O     -0.76037497    -1.37131711     0.17755729
H      0.04083413    -0.97098436     0.09484140
H     -1.01044623    -1.46211515     1.08821018
9
water clusters train frame=435
O      1.57210539    -0.04711107     0.02541411
H      0.76527334     0.57595551     0.04705903
H      1.81103359     0.02657581     1.22904803
O     -0.66342223     1.31253169    -0.14750588
H     -0.80976160     0.51895075    -0.20496116
H     -0.72874895     1.54928381    -1.01830237
O     -0.90195424    -1.34250028     0.15328502
H      0.10336722    -0.88406972     0.00044297
H     -0.99989853    -1.49426905     1.13617345
9
water clusters train frame=436
O      1.59200635     0.06228336     0.13208689
H      0.77364692     0.49523655     0.08737607
H      1.78701388    -0.02223604     1.11025478
O     -0.82037768     1.33265096    -0.17620329
H     -0.83956402     0.42339408    -0.08821226
H     -0.79621364     1.52749447    -1.07756364
O     -0.78717606    -1.39248656     0.14476277
H     -0.07709678    -0.89054117     0.04624872
H     -0.93078348    -1.51058967     1.07243012
9
water clusters train frame=437
O      1.55197170     0.08590107     0.08822231
H      0.75165790     0.49404952     0.09012301
H      1.72460077    -0.06845182     1.08454086
O     -0.85096633     1.35232555    -0.24779326
H     -0.81150400     0.30255402    -0.10470136
H     -0.84471831     1.59454127    -1.04907608
O     -0.76534382    -1.31405951     0.02649105
H      0.10307790    -0.86558790     0.05731627
H     -0.87340451    -1.53262269     0.99787440
9
water clusters train frame=438
O      1.61940468    -0.14542654     0.07082533
H      0.60802871     0.51252524     0.14538836
H      1.84707650    -0.19843555     0.99837179
O     -0.72265719     1.35910221    -0.16611844
H     -0.85008992     0.47333219    -0.16059509
H     -0.74661188     1.69886128    -1.07561981
O     -0.81245635    -1.44878044     0.15288222
H      0.14936230    -1.01268853     0.08860206
H     -0.88942228    -1.52978440     1.11868564
9
water clusters train frame=439
O      1.58941256    -0.03761580     0.13912646
H      0.78509106     0.46650201     0.11722102
H      1.72294518     0.00329929     1.05384073
O     -0.75757168     1.32676919    -0.11831079
H     -0.82916903     0.41090484    -0.07491296
H     -0.80663870     1.56803644    -1.05431905
O     -0.74251503    -1.27819689     0.14547171
H      0.06448492    -0.89809747     0.01028966
H     -0.94022757    -1.50199327     1.04749381
9
water clusters train frame=440
O      1.57154375     0.01528126     0.11785686
H      0.78104114     0.48651510     0.17256013
H      1.80456127    -0.03449046     1.16197426
O     -0.80120210     1.27607194    -0.27293101
H     -0.71279252     0.42925126    -0.08989081
H     -0.88758887     1.59847670    -1.08643248
O     -0.76102280    -1.36525620     0.21851999
H      0.02462693    -0.91704519     0.02431387
H     -1.05187415    -1.40307933     1.10109868
9
water clusters train frame=441
O      1.63336363    -0.22336137     0.15857372
H      0.83217532     0.60844904     0.06295362
H      1.76871457    -0.09337580     1.02575692
O     -0.75803356     1.44539884     0.05485932
H     -0.71461520     0.36943908    -0.04297847
H     -0.76173102     1.51557733    -1.01456268
O     -0.78246021    -1.31008317     0.06997135
H     -0.00110224    -0.98041533     0.09796653
H     -0.93937330    -1.61715545     1.09154528
9
water clusters train frame=442
O      1.60356035    -0.01295070     0.09840631
H      0.79213049     0.46798432     0.10489666
H      1.76135712    -0.04598188     1.09119766
O     -0.73903793     1.30986844    -0.13969607
H     -0.79232189     0.49298599    -0.08535270
H     -0.80663147     1.64716457    -1.08748578
O     -0.78914982    -1.40330952     0.19523586
H     -0.00614724    -0.91494394     0.07770212
H     -0.99071687    -1.46225525     0.96775908
9
water clusters train frame=443
O      1.60418269     0.01669448     0.21152880
H      0.87213380     0.38470390     0.23674917
H      1.79002283    -0.06000059     1.06744733
O     -0.83167649     1.45934401    -0.16547098
H     -0.92114411     0.36021400    -0.07152542
H     -0.80577918     1.60011807    -1.12011843
O     -0.81177786    -1.42056212     0.09270499
H      0.02665435    -0.89069555     0.10661079
H     -0.94108871    -1.46150463     1.02257730
9
water clusters train frame=444
O      1.68054326    -0.00296549     0.14079922
H      0.70812587     0.45762650    -0.02531510
H      1.66997659    -0.05278960     1.09285357
O     -0.67578965     1.49113109     0.04601367
H     -0.92952883     0.60169647    -0.13900796
H     -0.81497362     1.57052812    -0.78599582
O     -0.84166544    -1.25796165     0.14759952
H      0.03307121    -0.79789675     0.09783649
H     -0.90648446    -1.52955092     0.99595676
9
water clusters train frame=445
O      1.63068310     0.04698226     0.21092627
H      0.77908214     0.40476546     0.13140447
H      1.74708847    -0.07989369     1.16168900
O     -0.81344977     1.39948980    -0.19294998
H     -0.82502757     0.39477398    -0.02562364
H     -0.81919875     1.61674717    -1.03085536
O     -0.70686689    -1.38536643     0.13424159
H      0.01766383    -0.85383269     0.16752043
H     -0.88496113    -1.51155841     1.07881608
9
water clusters train frame=446
O      1.53930930    -0.05233114     0.04143657
H      0.69072421     0.51030207     0.06523022
H      1.80424689    -0.08366756     1.15959238
O     -0.69556074     1.38259086    -0.09726191
H     -0.84600542     0.36634362    -0.00160046
H     -0.75965794     1.52100812    -1.04540984
O     -0.83644546    -1.40230693     0.22630037
H      0.12645919    -0.91186813     0.01011058
H     -0.95314185    -1.47403118     1.08549133
9
water clusters train frame=447
O      1.68889464     0.01336776     0.17066596
H      0.66613115     0.45155514     0.00229098
H      1.65597912    -0.07046779     1.19294274
O     -0.77813239     1.43644848    -0.05172181
H     -0.83295873     0.36617652    -0.17007763
H     -0.82827158     1.61051175    -1.13037410
O     -0.70585690    -1.37629709     0.21336992
H      0.09650181    -0.85881247     0.14394254
H     -1.13529936    -1.44603847     1.14397267
9
water clusters train frame=448
O      1.58666174    -0.00533525     0.13281159
H      0.80674928     0.48814755     0.08505315
H      1.78304017    -0.13235568     1.07492327
O     -0.85719980     1.37072827    -0.12187039
H     -0.83374387     0.46636719    -0.14474621
H     -0.79561107     1.60163756    -1.11377323
O     -0.84206580    -1.39488647     0.13438683
H     -0.01280047    -0.89510415     0.05801992
H     -0.91619443    -1.39231209     1.14688046
9
water clusters train frame=449
O      1.59583053    -0.05021206     0.02844510
H      0.71163109     0.47349838     0.09672889
H      1.69794241     0.00629960     0.97098296
O     -0.76601263     1.49644343    -0.10364054
H     -0.87582919     0.37589994    -0.04177445
H     -0.68505360     1.64962160    -1.10948176
O     -0.81822028    -1.25427902     0.15888188
H     -0.02944284    -0.91100306     0.01888617
H     -1.03114532    -1.37672440     1.15462091
9
water clusters train frame=450
O      1.48244262     0.02411719     0.08472150
H      0.81156802     0.42619883     0.19214476
H      1.83044569    -0.12508893     1.12783421
O     -0.83484846     1.36408607    -0.24929602
H     -0.80605164     0.50574540    -0.13513731
H     -0.85480117     1.48571852    -1.16942224
O     -0.74491066    -1.40007787    -0.04782833
H      0.02171136    -0.91164772     0.02559794
H     -0.99736513    -1.32992413     0.99110555
9
water clusters train frame=451
O      1.57618106    -0.00610388     0.18989682
H      0.79452342     0.50040950     0.05101889
H      1.74325231    -0.11371562     1.05524873
O     -0.79806953     1.33988934    -0.16463614
H     -0.80946663     0.51481047    -0.06305716
H     -0.82862827     1.45060970    -1.08707451
O     -0.74335377    -1.39220028     0.17705960
H     -0.04135662    -0.88323904     0.16890545
H     -0.90827874    -1.40690687     1.05888613
9
water clusters train frame=452
O      1.70076829    -0.05326206     0.18421917
H      0.73836026     0.46839708     0.15557920
H      1.76452760    -0.12893231     1.03739749
O     -0.85102652     1.34784943    -0.07583847
H     -0.80889880     0.37564337    -0.05365686
H     -0.78929048     1.56039920    -1.09424210
O     -0.83939378    -1.39663659     0.12274338
H      0.00255887    -0.98164652     0.09633037
H     -0.98924618    -1.59599469     1.16130984
9
water clusters train frame=453
O      1.64254929     0.07447346     0.08833876
H      0.77073491     0.38630003     0.03403046
H      1.72736733    -0.10802531     1.04580870
O     -0.74186549     1.33600959    -0.07934395
H     -0.92874578     0.49558274    -0.14135400
H     -0.79655067     1.49855014    -1.18429398
O     -0.67917348    -1.42673927     0.03338558
H     -0.08567131    -0.85574517     0.09585102
H     -0.97034991    -1.36636910     1.22994674
9
water clusters train frame=454
O      1.61730309    -0.08959326     0.22386674
H      0.77783070     0.46857755     0.14974425
H      1.72477067    -0.12005225     1.07274142
O     -0.86922520     1.39204856    -0.06627037
H     -0.78998706     0.44712654    -0.13466567
H     -0.78748092     1.58306640    -1.09366200
O     -0.84310585    -1.46222723     0.11667642
H      0.10077813    -0.91453515     0.07352606
H     -0.92594164    -1.48875082     1.08486959
9
water clusters train frame=455
O      1.64537336    -0.01725730     0.13049661
H      0.71306200     0.45665196     0.16238369
H      1.73591661    -0.04246087     0.97217944
O     -0.74482997     1.42233903    -0.14346895
H     -0.83029469     0.42861904     0.01135249
H     -0.85551394     1.58730887    -1.13307556
O     -0.85556984    -1.27736754     0.21725676
H      0.02247506    -0.93730420     0.02528344
H     -1.05462472    -1.52311736     1.13642457
9
water clusters train frame=456
O      1.58934648     0.03835115     0.15775419
H      0.81354068     0.47752325     0.13424364
H      1.69774045    -0.06018378     1.10991085
O     -0.77890215     1.26641816    -0.06888774
H     -0.77050165     0.52198688    -0.22358150
H     -0.74356851     1.59700718    -1.14164247
O     -0.95823338    -1.33849059     0.15332942
H     -0.19124181    -0.92684960     0.07007514
H     -0.91819103    -1.46436990     1.28653881
9
water clusters train frame=457
O      1.50118698    -0.01063156     0.16256979
H      0.82132236     0.37172855     0.16299959
H      1.75306916    -0.01606539     1.02569417
O     -0.84699112     1.35497096    -0.21930041
H     -0.73997158     0.41718015    -0.13382167
H     -0.77224217     1.52838208    -1.07441225
O     -0.75613854    -1.31967978     0.13253586
H      0.05768202    -0.84249100     0.05362924
H     -0.96964874    -1.46414152     1.03617949
9
water clusters train frame=458
O      1.60920099     0.00850464     0.09743332
H      0.76848854     0.45717593     0.04475823
H      1.75935310    -0.13458879     1.09859563
O     -0.80873913     1.31932575    -0.24925838
H     -0.83243495     0.39522650    -0.15470444
H     -0.82949695     1.52250647    -1.12030023
O     -0.83099423    -1.37582782     0.16054188
H      0.07872563    -0.72408589     0.06971581
H     -0.88980134    -1.45600583     1.15260168
9
water clusters train frame=459
O      1.55061060    -0.15145676     0.12921854
H      0.61565529     0.50402073     0.24897721
H      1.64217817     0.07601073     1.07931007
O     -0.84517183     1.43989661    -0.14326145
H     -0.85910578     0.52744850    -0.08527439
H     -0.88000298     1.57813503    -1.07794972
O     -0.70679206    -1.35526303     0.15108229
H      0.00928664    -0.88368076     0.16884595
H     -1.00343842    -1.45014593     1.07663772
9
water clusters train frame=460
O      1.67740792     0.03138108     0.11664076
H      0.74256879     0.40594799     0.08265104
H      1.73169591    -0.11541405     1.14471781
O     -0.82903831     1.45415082    -0.09203583
H     -0.83753612     0.40900556    -0.12698200
H     -0.79355315     1.54007440    -1.06788441
O     -0.76275946    -1.35121111     0.14294036
H      0.06715916    -0.94166434     0.11449333
H     -0.98657493    -1.41874685     1.08623053
9
water clusters train frame=461
O      1.65951729    -0.08396017     0.16208004
H      0.82768648     0.49805778     0.08974317
H      1.76804862    -0.06218425     1.16099073
O     -0.77331174     1.36235368    -0.25147902
H     -0.76859534     0.33665301    -0.10723548
H     -0.82940577     1.62535968    -1.03150742
O     -0.74201373    -1.37447876     0.19013730
H     -0.10218070    -0.81744808     0.06416370
H     -0.99282046    -1.48361679     1.06689150
9
water clusters train frame=462
O      1.66552131     0.13857587     0.13771855
H      0.79840222     0.48342410     0.13834773
H      1.79884148    -0.04379001     1.08870667
O     -0.88437220     1.43383010    -0.04582467
H     -0.89540777     0.33438175    -0.12410130
H     -0.74574221     1.74992217    -1.13704631
O     -0.99051610    -1.43906718     0.07155428
H      0.08940094    -0.82261181     0.08541828
H     -1.01318883    -1.46758845     1.21299017
9
water clusters train frame=463
O      1.54090522     0.02560549     0.18626101
H      0.79276612     0.49256963     0.08260883
H      1.69715247    -0.07518539     0.98729807
O     -0.77568914     1.32917710    -0.14468679
H     -0.83295315     0.39722226    -0.14325031
H     -0.80226524     1.50536013    -1.14234958
O     -0.80628121    -1.37934508     0.15584031
H      0.04198200    -0.98299518     0.12467031
H     -0.98544215    -1.49397125     1.01069643
9
water clusters train frame=464
O      1.55637171    -0.02478844     0.06142156
H      0.65855288     0.52091207     0.14291977
H      1.81696038    -0.11300051     1.07229739
O     -0.82355246     1.40783141    -0.23254449
H     -0.76492677     0.46473132    -0.05708558
H     -0.66376373     1.58836434    -1.10707876
O     -0.79286797    -1.30458841     0.14370000
H     -0.02538534    -1.04975981     0.21251392
H     -1.01751885    -1.42202485     1.14672447
9
water clusters train frame=465
O      1.58975716    -0.00296284     0.08582326
H      0.62537430     0.46076742     0.20966453
H      1.76785933     0.08331193     1.12595435
O     -0.83780800     1.37117173    -0.16435550
H     -0.84177924     0.42517548    -0.13555783
H     -0.77496411     1.53468867    -1.10500074
O     -0.73418072    -1.37675275     0.13030606
H      0.10698303    -0.75162636    -0.02137238
H     -0.85416694    -1.28008839     1.05749757
9
water clusters train frame=466
O      1.64030430     0.00599934     0.09356383
H      0.77466165     0.43218001     0.11295300
H      1.75638823    -0.11409505     1.11133051
O     -0.82243848     1.41513008    -0.08465568
H     -0.77713566     0.47330665    -0.18669036
H     -0.83393211     1.55740890    -1.07087557
O     -0.84092508    -1.35394520     0.13276542
H      0.02785932    -0.84161132     0.12250264
H     -0.98332581    -1.48834372     1.06496390
9
water clusters train frame=467
O      1.59005532    -0.02679855     0.08449849
H      0.78414829     0.47057542     0.21135870
H      1.72804037    -0.09057394     1.00857135
O     -0.80735921     1.39995538    -0.16381428
H     -0.83653788     0.52512179    -0.15911550
H     -0.77841073     1.53764056    -1.15812396
O     -0.76021656    -1.39975012     0.14603707
H      0.11088478    -0.81910745     0.06086474
H     -0.93332100    -1.52631443     0.98807743
9
water clusters train frame=468
O      1.55037069     0.10463440     0.16950105
H      0.75191126     0.44687063     0.13134251
H      1.73009323     0.05515939     0.93261734
O     -0.81170852     1.32631863    -0.16461907
H     -0.82431700     0.41843716    -0.09524155
H     -0.87682760     1.48714842    -1.12490577
O     -0.74106058    -1.46042407     0.05723607
H      0.11318911    -0.87153622     0.14125775
H     -0.99560903    -1.61732371     1.20412420
9
water clusters train frame=469
O      1.54342205    -0.02434562     0.15838519
H      0.74037995     0.51176413     0.13063958
H      1.82360086    -0.11757621     1.08438798
O     -0.85277398     1.38466332    -0.10342297
H     -0.83307158     0.43840933    -0.08051586
H     -0.78341968     1.60681241    -1.11353428
O     -0.84772387    -1.36040893     0.13217066
H     -0.01350238    -0.91817701     0.10778110
H     -0.91982285    -1.47358840     1.08563571
9
water clusters train frame=470
O      1.67401810     0.04674046     0.20289193
H      0.79786800     0.51507123     0.11455031
H      1.84856707    -0.09943443     1.05276535
O     -0.76267485     1.47469601    -0.10446529
H     -0.79314125     0.39354395    -0.08447313
H     -0.81055338     1.39873616    -1.06132540
O     -0.75534845    -1.37496396     0.15132477
H      0.02047633    -0.91097116     0.07694203
H     -1.02664648    -1.37914952     1.15453980
9
water clusters train frame=471
O      1.56594413     0.02261945    -0.04074452
H      0.82966646     0.31385242     0.05314104
H      1.76587680    -0.17126635     1.00784743
O     -0.65010030     1.25897696    -0.02605829
H     -0.80468760     0.28346097    -0.07093266
H     -0.76416954     1.54628962    -1.01600394
O     -0.85173255    -1.43976462     0.05885114
H      0.02784091    -0.95349202     0.13321581
H     -0.84816367    -1.50170693     1.08867851
9
water clusters train frame=472
O      1.56408291     0.01529254     0.22599470
H      0.73549015     0.47166942     0.06148237
H      1.74496202    -0.10196584     1.09016073
O     -0.78564717     1.42545537    -0.17624951
H     -0.84423774     0.39193819    -0.11138378
H     -0.81752170     1.53343173    -1.03784515
O     -0.71868471    -1.42141091     0.15786972
H      0.11242821    -1.00525050     0.05347983
H     -0.97241204    -1.43389163     1.09556246
9
water clusters train frame=473
O      1.54210749    -0.07350987     0.19582801
H      0.71828548     0.47072120     0.05128663
H      1.73684394    -0.08561779     1.04315681
O     -0.74248213     1.43201997    -0.03231333
H     -0.68623130     0.41917317    -0.13981523
H     -0.74683270     1.60068747    -1.04479503
O     -0.82596401    -1.42485161     0.21189675
H      0.09437734    -0.75627339     0.24055986
H     -1.02925476    -1.41988560     1.06622727
9
water clusters train frame=474
O      1.78295806     0.00980219     0.17896482
H      0.75423638     0.44442133     0.18481066
H      1.88264448    -0.14148292     1.10342901
O     -0.78187789     1.37160425    -0.15222051
H     -0.68875448     0.46125718    -0.04543370
H     -0.74046202     1.63680623    -1.14692243
O     -0.78205976    -1.22033988     0.09167428
H      0.13636580    -0.90578041     0.15352987
H     -0.82328294    -1.44886600     0.99858255
9
water clusters train frame=475
O      1.60990126     0.04281026     0.11478339
H      0.73538118     0.48628429     0.12057928
H      1.75246936    -0.06529876     1.05084360
O     -0.82543770     1.35381557    -0.12677541
H     -0.81648505     0.33492597    -0.07575137
H     -0.84924357     1.59643410    -1.08584185
O     -0.77226657    -1.36989936     0.11736568
H      0.01536481    -0.89097298     0.09610668
H     -0.93873713    -1.46596226     1.13000248
9
water clusters train frame=476
O      1.61875918    -0.00094670     0.08246901
H      0.84056820     0.47024980     0.04774573
H      1.71311647    -0.01875063     1.05010189
O     -0.84019475     1.37362344    -0.10201660
H     -0.72269270     0.48447694    -0.01326379
H     -0.76149394     1.53160633    -1.08620611
O     -0.94533847    -1.39185294     0.11522273
H      0.04176512    -0.86056087     0.00126850
H     -0.88479555    -1.56803535     1.03203944
9
water clusters train frame=477
O      1.63924483     0.02295765     0.11539443
H      0.88996040     0.54573521    -0.02062771
H      1.71164744    -0.15217089     1.16421532
O     -0.70629018     1.27476383    -0.21882846
H     -0.90396055     0.45242498    -0.06780346
H     -0.75298396     1.40707223    -1.10926018
O     -0.73871425    -1.37089318     0.14232307
H     -0.04421698    -0.96531939    -0.01967165
H     -0.92908468    -1.39480766     1.10925314
9
water clusters train frame=478
O      1.61788938     0.01501468     0.14373953
H      0.71792163     0.51252440     0.13127522
H      1.74087808    -0.12541904     1.07787546
O     -0.79178350     1.36269546    -0.16803776
H     -0.76705547     0.45484403    -0.07751362
H     -0.77106684     1.52036933    -1.11702142
O     -0.80427568    -1.41464315     0.11624565
H      0.09397414    -0.92617823     0.11586647
H     -0.95749843    -1.49636156     1.10225551
9
water clusters train frame=479
O      1.58638661     0.01335596     0.06948455
H      0.67615444     0.46248670     0.17438923
H      1.66938205    -0.14105377     1.23148614
O     -0.76929521     1.35808342    -0.17667434
H     -0.79011484     0.50081447    -0.15242400
H     -0.77661457     1.58656572    -1.15182555
O     -0.81316411    -1.25980759     0.16936182
H      0.01170345    -0.84150359     0.13143318
H     -0.99151460    -1.55117262     1.11695282
9
water clusters train frame=480
O      1.57219575     0.11138549     0.12018687
H      0.72693157     0.49659950     0.12237111
H      1.80428955    -0.17858596     1.09371252
O     -0.70638422     1.28709424    -0.13251506
H     -0.71532619     0.48940792    -0.01575603
H     -0.88349047     1.51088160    -1.19920796
O     -0.78795706    -1.44608835     0.12031668
H     -0.03747755    -0.96433087     0.20071433
H     -0.86102960    -1.57448722     0.94884416
9
water clusters train frame=481
O      1.54423851    -0.03620862     0.13362703
H      0.80900840     0.55113995     0.15352063
H      1.78538319    -0.08419300     1.08826508
O     -0.76663648     1.43309333    -0.16357466
H     -0.82622476     0.48338280    -0.05860701
H     -0.81421143     1.61142462    -1.15648576
O     -0.75226598    -1.34403083     0.14697994
H      0.04286662    -0.86679009     0.09866880
H     -0.97297704    -1.50335275     1.08259821
9
water clusters train frame=482
O      1.69530109    -0.00483496     0.11051780
H      0.78422692     0.41230847     0.12182604
H      1.80718117    -0.04229802     1.08348246
O     -0.80101944     1.31839322    -0.10093351
H     -0.83629577     0.37314217    -0.06602115
H     -0.74912963     1.58266314    -1.08071376
O     -0.89215663    -1.34351147     0.11950648
H      0.04058532    -0.99064919     0.01111227
H     -0.93077427    -1.46219018     1.06835815
9
water clusters train frame=483
O      1.41487140    -0.07622261     0.12979889
H      0.73573375     0.47479546    -0.00387897
H      1.81445697    -0.01010743     1.06604809
O     -0.82425508     1.45719683    -0.13145528
H     -0.87104433     0.45637273    -0.20428333
H     -0.79611903     1.55972052    -1.09787156
O     -0.83852245    -1.40635911     0.17146395
H      0.18666774    -1.06911721     0.14380229
H     -1.12671368    -1.41416009     1.09024574
9
water clusters train frame=484
O      1.62428570    -0.01706160     0.16452020
H      0.81326881     0.48194053     0.07539800
H      1.71657203    -0.06279368     1.06877125
O     -0.84050257     1.41981402    -0.18939652
H     -0.69793377     0.42851914    -0.13097795
H     -0.78245391     1.56720098    -1.07853189
O     -0.83313511    -1.36601523     0.15380624
H      0.04455502    -0.79958616     0.11416618
H     -0.94365032    -1.49930862     1.16350745
9
water clusters train frame=485
O      1.50497240    -0.05316484     0.17760554
H      0.70554138     0.41155319     0.15715887
H      1.76259542    -0.12298710     1.12627754
O     -0.89865512     1.40391933    -0.10524645
H     -0.84702527     0.35904615    -0.06650083
H     -0.76951971     1.57298108    -1.18692900
O     -0.71754429    -1.43657117     0.16123022
H      0.06511574    -0.89861102     0.05777616
H     -1.05187593    -1.39867634     1.00861477
9
water clusters train frame=486
O      1.59829516     0.05085026     0.07318260
H      0.78219133     0.48425822     0.20198920
H      1.83530611    -0.10733292     1.12507841
O     -0.83289721     1.52180084    -0.08528670
H     -0.69822925     0.32062395    -0.01556203
H     -0.88696547     1.69325846    -1.02323459
O     -0.64807247    -1.54756457     0.13172586
H      0.07291541    -0.88966120     0.11642233
H     -0.91490721    -1.52721538     1.17011765
9
water clusters train frame=487
O      1.64927559    -0.06918912     0.11418842
H      0.81926877     0.47568513     0.02849757
H      1.71265984    -0.15606965     1.07657437
O     -0.78412247     1.36342426    -0.17205189
H     -0.75659635     0.46174714    -0.05490779
H     -0.73632942     1.55588296    -1.00335187
O     -0.77978501    -1.39442021     0.15337032
H      0.03896822    -0.87629053     0.04940515
H     -0.96675663    -1.46286237     1.02191665
9
water clusters train frame=488
O      1.66610373    -0.03393982     0.23929882
H      0.66802900     0.42705691     0.19216371
H      1.74631450    -0.08143859     1.11772957
O     -0.84875633     1.52215825    -0.02175740
H     -0.85960913     0.41793983    -0.04224468
H     -0.84172287     1.52420972    -1.12001230
O     -0.78867648    -1.35145344     0.04363906
H     -0.00749394    -0.95515180     0.14554228
H     -1.01287003    -1.49280963     1.05650575
9
water clusters train frame=489
O      1.61275937     0.07167701     0.21337087
H      0.83358970     0.43180681     0.16803416
H      1.72776878    -0.08712385     1.15264202
O     -0.79671523     1.27498085    -0.12674478
H     -0.84298056     0.37608426    -0.11993706
H     -0.74898945     1.52424434    -1.31591793
O     -0.79411552    -1.34583936     0.22109638
H     -0.01231986    -0.89619062     0.26663020
H     -1.01136519    -1.52842817     1.18141273
9
water clusters train frame=490
O      1.53026839     0.00801782     0.23344753
H      0.71304735     0.45486368     0.11223538
H      1.75717419    -0.16943781     1.02678266
O     -0.77707867     1.43566160    -0.22278289
H     -0.80398502     0.46871147    -0.07882409
H     -0.73363092     1.55106244    -1.12135527
O     -0.81033887    -1.37307623     0.14254594
H     -0.02186419    -0.96696310     0.08266203
H     -0.97859461    -1.46587507     1.04123788
9
water clusters train frame=491
O      1.57949934     0.11901177     0.11618937
H      0.78738550     0.46127062     0.14567996
H      1.81778930     0.04775438     1.06387382
O     -0.73197460     1.41354085    -0.25433989
H     -0.77633649     0.35990687    -0.04082380
H     -0.81285276     1.52378871    -1.06671752
O     -0.71403404    -1.43446105     0.09216863
H     -0.06517821    -0.97575147     0.09270579
H     -1.06132530    -1.47065758     1.04352598
9
water clusters train frame=492
O      1.64978924    -0.11152878     0.20514146
H      0.93535749     0.55606104     0.02738810
H      1.67437822    -0.06969357     1.07894148
O     -0.99808222     1.49641251    -0.10116509
H     -0.77326278     0.29965018    -0.09875510
H     -0.71614467     1.53244907    -0.97316563
O     -0.86534092    -1.45892374     0.20997324
H      0.00515919    -0.91076300    -0.00228298
H     -0.97818262    -1.40799088     1.12340855
9
water clusters train frame=493
O      1.62154584    -0.05568406     0.14918096
H      0.85196348     0.47670410     0.08585335
H      1.81419989    -0.09613368     1.04960272
O     -0.80724379     1.34706007    -0.20589399
H     -0.78661042     0.42907919    -0.11759905
H     -0.80154117     1.57212474    -1.09074423
O     -0.84125712    -1.37961790     0.17815117
H     -0.03452846    -0.94533011     0.18133241
H     -0.96513266    -1.46767888     1.14163779
9
water clusters train frame=494
O      1.59964184     0.06776774     0.19731788
H      0.86045840     0.43846907     0.04323155
H      1.72528287    -0.12308512     0.97957496
O     -0.77853896     1.33486283    -0.20701591
H     -0.84864760     0.39186243    -0.01256602
H     -0.73113559     1.66197525    -0.99086153
O     -0.70827170    -1.34773148     0.17605713
H     -0.04364641    -0.90025935     0.26078609
H     -1.02254685    -1.41517565     1.10368575
9
water clusters train frame=495
O      1.52346238     0.10992460     0.07380015
H      0.82072707     0.41219980     0.12173293
H      1.62145263    -0.16495630     1.11061160
O     -0.74986192     1.34004053    -0.00131188
H     -0.90898204     0.46938485    -0.24388325
H     -0.76080286     1.63855373    -1.18097989
O     -0.84342123    -1.29969311     0.02847611
H     -0.06352545    -0.98009268     0.03480488
H     -1.00303047    -1.45462578     1.03638162
9
water clusters train frame=496
O      1.54034872     0.04388798     0.20983341
H      0.87618280     0.46614326     0.16302744
H      1.76060733    -0.05619381     1.04916619
O     -0.85659582     1.43550414    -0.16568001
H     -0.81427079     0.44677003    -0.12383090
H     -0.75746644     1.54912351    -1.05919475
O     -0.86121363    -1.38784066     0.15859620
H     -0.01497620    -0.91242811     0.06133392
H     -0.94141495    -1.41871495     1.08968799
9
water clusters train frame=497
O      1.65451830    -0.07671197     0.12985245
H      0.72933997     0.49744729     0.13722216
H      1.79004191    -0.04657780     1.16091168
O     -0.76288579     1.47748572    -0.13806225
H     -0.75222238     0.47758741    -0.09855686
H     -0.88416366     1.52295700    -1.07715849
O     -0.88951808    -1.29209027     0.13905400
H     -0.01327228    -0.82538997     0.10865012
H     -1.02256197    -1.53441551     1.11069602
9
water clusters train frame=498
O      1.66544412     0.01403020     0.12743158
H      0.76615834     0.51305176     0.10547108
H      1.78745326    -0.06803383     1.04585761
O     -0.76914371     1.44956166    -0.11255794
H     -0.76008923     0.46345882    -0.09239232
H     -0.77374287     1.52503973    -1.12816453
O     -0.78710622    -1.38761503     0.18515374
H      0.03427066    -0.73072710     0.07875989
H     -1.06605862    -1.54024289     1.17790207
9
water clusters train frame=499
O      1.54970825    -0.04371787     0.18424293
H      0.79796892     0.51169819     0.09620891
H      1.79706591    -0.13756032     1.05204900
O     -0.78254334     1.45398090    -0.16181233
H     -0.79148748     0.41382505    -0.13038019
H     -0.83959140     1.48636818    -1.13622701
O     -0.76934454    -1.39415889     0.07999488
H      0.01596325    -1.02351047     0.08533584
H     -0.95133743    -1.47202046     1.04369121
12
water clusters train frame=500
O      1.98169192    -0.03571781     0.12283950
H      1.35949532     0.65343792     0.06796160
H      2.10322559    -0.12452249     1.07059535
O      0.02204601     1.93394778    -0.16908024
H     -0.66410632     1.25887319    -0.02270013
H      0.11690235     2.09313214    -1.08554382
O     -1.97605210    -0.04131984     0.19019594
H     -1.27730112    -0.68039024     0.14176797
H     -2.07206753     0.07885330     1.13569733
O      0.05385226    -2.01353813    -0.20880340
H      0.70808461    -1.19440418    -0.08647997
H     -0.12440783    -2.10518933    -1.04886533
12
water clusters train frame=501
O      1.85004886     0.03753431     0.19393527
H      1.21661824     0.73823239     0.18209227
H      1.97600512    -0.08346017     0.94503982
O      0.00185301     1.97333937    -0.19405031
H     -0.68614209     1.37921502    -0.04278961
H      0.13787773     2.07413836    -1.13001301
O     -1.88429153    -0.02083018     0.06041538
H     -1.28551375    -0.67118980     0.03976406
H     -2.10417529     0.21997444     1.12721034
O      0.05855860    -1.94907364    -0.12175060
H      0.71046175    -1.32945040    -0.07591571
H     -0.16643498    -2.07732326    -1.14424638
12
water clusters train frame=502
O      1.88431397    -0.08491897     0.14351801
H      1.12740891     0.75678108     0.12138625
H      1.87897136    -0.13059605     1.01127814
O     -0.13109105     1.85992617    -0.02244858
H     -0.63854645     1.09662665    -0.18843081
H      0.27223135     2.11525006    -1.00622217
O     -1.80164047     0.06227293     0.25119457
H     -1.31839617    -0.59323615     0.15113999
H     -2.03771902     0.13849835     1.13856822
O     -0.02450323    -1.90806687    -0.15093936
H      0.70989232    -1.24952906     0.01414122
H     -0.18348853    -2.11162920    -1.02887075
12
water clusters train frame=503
O      1.91271157    -0.01012456     0.10486523
H      1.33473620     0.66544404     0.14016011
H      2.03429530    -0.15401585     1.11039161
O     -0.03563732     1.99414033    -0.13838255
H     -0.67774762     1.29121015    -0.06497419
H      0.09029195     2.10519458    -1.08603784
O     -1.92164011    -0.02710795     0.05317781
H     -1.20080390    -0.64741632     0.13197930
H     -2.12554906     0.17258231     1.18435303
O     -0.09456670    -1.94866870    -0.16381603
H      0.69988341    -1.32018891    -0.04310482
H     -0.19547559    -2.04027362    -1.05291303
12
water clusters train frame=504
O      2.10124691     0.05751816     0.15360572
H      1.34572981     0.74616785     0.07891372
H      2.14704390    -0.24001651     1.12767121
O      0.03875617     1.94818511    -0.11214217
H     -0.52757780     1.32930891    -0.15454210
H      0.11680791     2.10949615    -1.18103267
O     -2.02879254     0.03208413     0.12843163
H     -1.34260049    -0.70567791     0.00501885
H     -2.02516160     0.18725612     1.13091888
O     -0.08534901    -1.92434464    -0.12815177
H      0.65504136    -1.31498027    -0.15679078
H     -0.14576356    -2.05099578    -1.11739606
12
water clusters train frame=505
O      1.97645066    -0.19907032     0.06068613
H      1.29575419     0.81731833     0.01250855
H      1.99913119    -0.13146326     1.13053498
O      0.01171097     1.89405193    -0.15823975
H     -0.85206124     1.12202159     0.03458935
H      0.03673441     2.27908169    -1.06158259
O     -2.00345678     0.00880166     0.24066330
H     -1.35097505    -0.66329489     0.07044626
H     -1.99590168     0.20690159     1.05630582
O     -0.05730775    -1.89394325    -0.11703363
H      0.54385334    -1.19562604    -0.18066763
H     -0.10299375    -1.97100961    -1.13242563
12
water clusters train frame=506
O      1.90600098    -0.00392312     0.12803445
H      1.26926684     0.72819826     0.13829949
H      2.07370460    -0.19365288     1.05774215
O      0.01117483     1.94050378    -0.15941215
H     -0.69249618     1.32633691    -0.02807988
H      0.12387157     2.11264964    -1.08610695
O     -1.85736950    -0.07425489     0.10899890
H     -1.28449279    -0.63210919     0.03851864
H     -2.12676975     0.09826989     1.08801907
O     -0.04221824    -1.91315118    -0.12415535
H      0.65613676    -1.29237330    -0.06392415
H     -0.09672966    -2.08965707    -1.05766547
12
water clusters train frame=507
O      1.99073352     0.00259413     0.12290937
H      1.32900621     0.65020758     0.06529269
H      2.17023736    -0.11682688     1.06425266
O     -0.02188476     1.98438031    -0.11691458
H     -0.62537190     1.30935279    -0.14660555
H      0.22897616     2.04700535    -1.07519097
O     -1.91180735    -0.04971627     0.07654225
H     -1.23962166    -0.71318563     0.18407558
H     -2.09733541     0.17373861     1.19574699
O      0.04332611    -1.95598191    -0.05079318
H      0.70445447    -1.22815854    -0.14817639
H     -0.10261884    -2.08254362    -1.07724535
12
water clusters train frame=508
O      1.91556996     0.14773900     0.26147382
H      1.36965064     0.71666667     0.03839654
H      2.15887190    -0.14990458     1.07261523
O     -0.09704656     1.74116897    -0.21792709
H     -0.82390600     1.36375790    -0.07744582
H      0.26755520     2.00080826    -1.32856334
O     -2.03073882    -0.04815889     0.08416435
H     -1.37631055    -0.61630479     0.17117203
H     -2.14296553     0.01476059     1.10291476
O     -0.05160233    -1.89283523    -0.17244499
H      0.60542245    -1.30789382    -0.01959344
H     -0.08723857    -2.02583566    -1.07094320
12
water clusters train frame=509
O      1.90356421     0.00810515     0.10096784
H      1.31191173     0.62621301     0.09316157
H      2.10521010    -0.18345658     1.09517285
O     -0.01162006     1.86950333    -0.18754978
H     -0.65268876     1.24947840    -0.05851132
H      0.09475499     2.07382119    -1.05726367
O     -1.98648537    -0.03309719     0.17529916
H     -1.28282171    -0.60650936     0.06874717
H     -2.08568180     0.16492297     1.06307940
O     -0.04102456    -1.97479452    -0.14213194
H      0.66410196    -1.30934963    -0.12160421
H     -0.17698629    -2.10960846    -1.17197089
12
water clusters train frame=510
O      1.87096024    -0.12434598     0.25390767
H      1.22197351     0.75193817     0.17557053
H      2.07362110    -0.15039783     1.06178512
O     -0.05413428     1.91220589    -0.16829232
H     -0.66389222     1.35653435    -0.09352939
H      0.15838533     2.05727017    -1.09755129
O     -2.05490067     0.09460516     0.13404485
H     -1.37396111    -0.68400001     0.12997230
H     -2.15401694     0.21519190     1.14281403
O      0.01090098    -1.90601608    -0.17750612
H      0.65603200    -1.20298749    -0.13106529
H     -0.15350528    -2.11954503    -1.06120957
12
water clusters train frame=511
O      1.95393956    -0.09076977     0.11538070
H      1.14015534     0.72891230     0.00653328
H      2.13018344    -0.14158290     1.18855798
O      0.03706996     1.84724060    -0.34244683
H     -0.57861056     1.34784311    -0.21563271
H      0.17839616     2.12047229    -1.02831775
O     -1.84374098     0.10523393     0.17166425
H     -1.22572721    -0.72275495     0.06181806
H     -2.12569585     0.01645113     1.16395203
O      0.03630079    -1.93319157    -0.12609699
H      0.72329412    -1.12795773    -0.11704910
H     -0.10911331    -2.02485910    -1.04333248
12
water clusters train frame=512
O      1.95864271     0.03786908     0.18077690
H      1.24564835     0.72283362     0.15611809
H      2.05533896    -0.21073444     1.08818500
O      0.00941684     1.86817269    -0.18499809
H     -0.60405678     1.32856277    -0.10330774
H      0.14591523     2.15916088    -1.07976607
O     -1.93913171     0.06675851     0.13667385
H     -1.27526621    -0.69892419    -0.00835093
H     -1.99367556     0.14321148     1.15123421
O      0.00924506    -1.88785170    -0.12377444
H      0.73281677    -1.33438506    -0.10370562
H     -0.10339434    -2.07068241    -1.02161601
12
water clusters train frame=513
O      1.99287713    -0.05911419     0.15284217
H      1.23565962     0.69002975     0.13474219
H      2.10814847    -0.23836001     1.17397549
O      0.00477904     1.96593393    -0.16974802
H     -0.64686424     1.31259831    -0.23784209
H      0.07051309     1.99892866    -1.10299579
O     -1.99196580    -0.05909355     0.18084926
H     -1.19239426    -0.67285651     0.06446550
H     -2.11043580     0.11458930     1.21012958
O      0.09647819    -1.92801351    -0.07914212
H      0.62893675    -1.26073504    -0.10028216
H     -0.14700759    -2.00298899    -1.21062851
12
water clusters train frame=514
O      2.02080854     0.05984801     0.22188700
H      1.37447624     0.73608688    -0.00855290
H      2.06179873    -0.06625674     1.06476351
O      0.09656529     1.80489042    -0.17916918
H     -0.62944693     1.27902140    -0.19499706
H      0.11252253     2.10419008    -1.16539670
O     -1.94442733     0.00476903     0.15997383
H     -1.37451172    -0.60884572     0.12601068
H     -2.13669096     0.26218866     1.02095830
O     -0.00967633    -1.94970811    -0.17460115
H      0.72801969    -1.36384302    -0.14396520
H     -0.16832412    -2.07043428    -1.20897713
12
water clusters train frame=515
O      1.91032295     0.03884526     0.13854525
H      1.29025741     0.71106059     0.08983939
H      2.10325179    -0.10207430     1.01708471
O     -0.02293881     1.93280009    -0.21148403
H     -0.69992137     1.25956486    -0.07134574
H      0.14939284     2.06835819    -1.07834156
O     -1.96014052     0.02486816     0.10057731
H     -1.24334690    -0.65149715     0.07151492
H     -2.09713563     0.08773702     1.12314668
O      0.01498480    -1.93121383    -0.10368464
H      0.68711715    -1.26791762    -0.02683378
H     -0.14261212    -2.08811297    -1.08164268
12
water clusters train frame=516
O      1.83411307     0.00673529     0.19954310
H      1.31842948     0.64260757     0.11394588
H      2.10716460    -0.18054945     1.18006080
O      0.01232135     1.96891776    -0.18589055
H     -0.77072691     1.24968356    -0.02692677
H      0.14259415     2.13629006    -1.15235008
O     -1.93168380     0.13932532     0.15513336
H     -1.23720821    -0.67182701     0.00933897
H     -2.15591109     0.06167422     1.11903046
O     -0.08825524    -1.89300464    -0.28645652
H      0.64348487    -1.22129859    -0.10691169
H     -0.12215349    -2.16922902    -1.04491756
12
water clusters train frame=517
O      1.89266173    -0.11505281     0.09580157
H      1.36229174     0.59535585     0.14816379
H      2.15035476    -0.28890172     1.09644919
O      0.07941627     1.89536162    -0.16030850
H     -0.72280098     1.24565379    -0.15906429
H      0.07460399     2.00821589    -1.11362269
O     -2.01120867    -0.00956071     0.18928351
H     -1.35506954    -0.69812188     0.08998676
H     -2.12742639     0.25490340     1.08039034
O      0.08014847    -1.89706878    -0.16426160
H      0.68819066    -1.37203666     0.01638278
H     -0.18226784    -2.05486025    -1.02822958
12
water clusters train frame=518
O      1.90482029    -0.02610384     0.06961326
H      1.31627274     0.65158504    -0.00175568
H      2.04274661    -0.15800533     1.12328043
O      0.07634986     1.98496639    -0.16058855
H     -0.69549514     1.32230067    -0.12859583
H      0.17893417     2.11097866    -1.06775589
O     -1.96721891     0.01291054     0.07973723
H     -1.31337845    -0.68704548     0.09689509
H     -2.14017109     0.17783277     1.12571096
O      0.03721123    -1.91769466    -0.14718013
H      0.70464280    -1.28153773    -0.08907007
H     -0.13415564    -2.13911176    -1.07667884
12
water clusters train frame=519
O      1.99594161     0.00469228     0.17049908
H      1.22536709     0.70239274     0.14133163
H      2.22374708    -0.20647707     1.06340982
O      0.00269489     1.97342996    -0.20999213
H     -0.72692123     1.33916553     0.01945112
H      0.17195997     2.17910011    -1.11152532
O     -1.83162181    -0.01748634     0.15146747
H     -1.25060916    -0.73924043     0.08982521
H     -2.05374469     0.08197580     1.03342534
O      0.02409363    -1.98748081    -0.14931461
H      0.59782790    -1.15682612    -0.20852778
H     -0.09056648    -2.05643450    -1.06211795
12
water clusters train frame=520
O      1.84169120    -0.03783335     0.07232497
H      1.33236192     0.57382940     0.06896679
H      2.05948211    -0.16983916     1.07176873
O     -0.06371784     2.02789100    -0.19043206
H     -0.61054956     1.25982646    -0.04590883
H     -0.02642666     1.94591790    -0.96903322
O     -1.99640129    -0.09891217     0.08270353
H     -1.14726917    -0.59149377     0.07140532
H     -2.19262066     0.09644617     1.04980111
O     -0.04810890    -2.09883390    -0.09034020
H      0.66884447    -1.27446191    -0.13650958
H     -0.18930015    -2.02983712    -1.15475758
12
water clusters train frame=521
O      1.99917494    -0.03986538     0.17627182
H      1.30010436     0.67068371     0.09957535
H      2.10828683    -0.14718256     1.05058784
O     -0.02353715     2.02604739    -0.12801631
H     -0.65920785     1.29255064    -0.14650830
H      0.08543220     2.07426082    -1.07949963
O     -1.96128026     0.05907535     0.16675986
H     -1.26191164    -0.72357989     0.15749403
H     -2.10174811     0.11597969     1.11435823
O     -0.02511301    -1.94561126    -0.19356506
H      0.66114538    -1.31213684    -0.08184976
H     -0.08003336    -2.11835515    -1.08666183
12
water clusters train frame=522
O      1.88730900     0.07189862     0.18671237
H      1.17957584     0.60310736     0.21213108
H      2.17083215    -0.09176635     1.03220828
O      0.07630965     1.84860247    -0.18630033
H     -0.80917561     1.33733130    -0.17727356
H      0.16356354     2.03224439    -1.05592755
O     -2.03131062     0.13314908     0.21525556
H     -1.15493389    -0.74291558     0.12848134
H     -2.03505813     0.17029241     1.04624507
O     -0.00064235    -1.84995320    -0.22114944
H      0.80595937    -1.24019855    -0.03860403
H     -0.15475953    -1.94732890    -1.02212952
12
water clusters train frame=523
O      1.91995387    -0.05363588     0.23347518
H      1.22635753     0.64170715     0.12500189
H      2.18343450    -0.04168548     1.19693873
O      0.00075903     1.88078831    -0.10695975
H     -0.57275806     1.29398783    -0.05887177
H      0.23825003     2.09401190    -1.09777931
O     -1.80366972     0.00210106     0.17184930
H     -1.39657702    -0.77455215     0.08297513
H     -2.05039334     0.19296352     1.08048337
O     -0.04596909    -1.99122820    -0.13852147
H      0.71407441    -1.21742790    -0.04747397
H     -0.09533839    -1.92874421    -0.99993226
12
water clusters train frame=524
O      1.95268418    -0.01215448     0.14080960
H      1.19027870     0.59055197     0.05376609
H      2.09691344    -0.16332008     1.01312465
O     -0.00200924     1.91392168    -0.26382234
H     -0.65830743     1.29954139    -0.03997224
H      0.21588976     2.10951658    -1.08777340
O     -2.03864970    -0.04057597     0.09720096
H     -1.22982578    -0.61496204     0.04189407
H     -2.14936469     0.14802088     1.17754020
O      0.03547946    -1.92231823    -0.08658195
H      0.69829632    -1.25392716    -0.11626230
H     -0.21895183    -2.03318976    -1.01124585
12
water clusters train frame=525
O      1.98561611    -0.01848164     0.16436083
H      1.27867880     0.63893266     0.03803614
H      2.02665277    -0.25076736     1.09697697
O     -0.02716796     1.96380394    -0.04679421
H     -0.69190037     1.32331621    -0.06928193
H      0.19969083     2.19707388    -1.09080833
O     -1.94906951    -0.02643192     0.10874038
H     -1.24825474    -0.67287699     0.08483402
H     -2.02862324     0.14622305     1.05263237
O      0.08206893    -1.97528956    -0.21366339
H      0.70037661    -1.20238606    -0.16785889
H     -0.12118119    -2.13610031    -1.04887986
12
water clusters train frame=526
O      2.01455856     0.05804233     0.13248562
H      1.19495911     0.70555770     0.02794429
H      2.16238237    -0.18740616     1.16946371
O      0.07773694     2.00372566     0.00629467
H     -0.69305361     1.12355502    -0.06736333
H      0.19974773     2.10159040    -1.19584293
O     -2.14322732    -0.13286054     0.05170278
H     -1.20463356    -0.61004341     0.20177801
H     -2.23519543    -0.00772598     1.15254803
O     -0.02759899    -1.94149535    -0.09516521
H      0.63876696    -1.35696336    -0.08795445
H     -0.31664087    -1.96741161    -1.02306605
12
water clusters train frame=527
O      1.90932200    -0.11229383     0.12085100
H      1.26790176     0.71977115     0.09554326
H      2.09569696    -0.15891208     1.09844761
O     -0.01709684     1.95632968    -0.17177396
H     -0.66183028     1.26210785    -0.09606395
H      0.09723161     2.08786271    -1.04390881
O     -1.93918150     0.00787694     0.13980204
H     -1.29442732    -0.67428868     0.04584201
H     -2.07965063     0.15330642     1.07631252
O      0.01909632    -1.99595049    -0.21088057
H      0.73253061    -1.22741181    -0.11340166
H     -0.08927258    -2.11004219    -1.03769128
12
water clusters train frame=528
O      1.94854481     0.05263223     0.13524552
H      1.33413768     0.55493632     0.13264921
H      2.14986850    -0.25945899     1.09189173
O     -0.06591564     1.96097044    -0.09925984
H     -0.65609472     1.32427768    -0.07476235
H      0.24257203     2.09827299    -1.20871787
O     -1.93841475     0.01510555     0.24804814
H     -1.24995285    -0.61549943     0.21929046
H     -2.07610196     0.07816790     1.15625734
O      0.02291255    -1.98873024    -0.09215273
H      0.72563267    -1.31142375    -0.10129885
H     -0.15724123    -2.17009202    -1.13112306
12
water clusters train frame=529
O      2.01218391     0.07676836     0.20807140
H      1.26495529     0.49153101     0.01281233
H      2.08512638    -0.02835164     0.98556496
O     -0.13246370     2.02631034    -0.26281155
H     -0.68614027     1.29684578    -0.02669905
H      0.11978448     2.03683762    -1.14624453
O     -1.96797717     0.04291363     0.10001002
H     -1.40799721    -0.62889726    -0.13347935
H     -2.08411006     0.16063704     1.10222579
O      0.03860938    -1.94288741    -0.17751066
H      0.61438003    -1.26190019    -0.16536084
H     -0.07329577    -2.25886980    -1.12410989
12
water clusters train frame=530
O      1.94787877     0.00022640     0.21395592
H      1.24941508     0.65292778     0.08433509
H      2.12217469    -0.13722701     1.07320900
O     -0.02845835     1.97400143    -0.16130242
H     -0.68690175     1.28848393    -0.13441583
H      0.18215479     2.10675595    -1.13914640
O     -1.91299934     0.13458671     0.13441783
H     -1.33771548    -0.65314267     0.11828382
H     -2.08506511     0.11813126     1.06749831
O     -0.03327350    -1.96936181    -0.16505842
H      0.73724227    -1.23908865    -0.08833008
H     -0.11523694    -2.11967410    -1.10740129
12
water clusters train frame=531
O      1.95030819    -0.03957645     0.29605572
H      1.22624586     0.61209934     0.15338921
H      2.11342867    -0.13677594     1.04624814
O     -0.10281748     2.01263235    -0.03101630
H     -0.63868646     1.18125836    -0.12937783
H      0.11254018     2.16017842    -1.14382875
O     -1.90978683     0.00363100     0.22988000
H     -1.20916849    -0.74604277     0.20141302
H     -2.13867729     0.09406870     1.09822619
O      0.00895919    -1.94081682    -0.25011330
H      0.66201425    -1.25827063    -0.10645356
H     -0.12602137    -1.91549961    -1.07596145
12
water clusters train frame=532
O      1.80693115     0.10774532     0.21175988
H      1.22474959     0.63616615     0.15024524
H      2.06939104     0.02676156     1.06388304
O     -0.00449623     1.93744465    -0.18343052
H     -0.68481538     1.33298400    -0.30250249
H      0.03830232     2.20156482    -1.18654285
O     -1.98599611    -0.01344206     0.16375850
H     -1.18117716    -0.59532340     0.08634981
H     -2.09168756     0.14731516     1.08527788
O      0.04125129    -1.87704958    -0.09514485
H      0.55014294    -1.23563967    -0.25980100
H      0.05896529    -2.07014248    -1.11407027
12
water clusters train frame=533
O      1.94898795     0.02185348     0.15127647
H      1.27735362     0.61899432     0.07857292
H      2.08469716    -0.11849205     1.18272127
O      0.02709568     1.97176235    -0.10771689
H     -0.72356152     1.35516513    -0.11411584
H      0.16720454     2.09526566    -1.08408608
O     -1.93759072     0.01548194     0.14683874
H     -1.22581425    -0.65352797     0.08257326
H     -2.10187251     0.10255569     1.13542042
O     -0.01425717    -2.01030263    -0.17600747
H      0.70259762    -1.27514875    -0.10639834
H     -0.10450886    -2.14083622    -1.06864971
12
water clusters train frame=534
O      1.97549897     0.13583277     0.13100717
H      1.34480999     0.73132404     0.08092287
H      2.09193105    -0.01071277     1.16130044
O      0.02479997     1.89354503    -0.17738139
H     -0.59271266     1.20327731    -0.04222589
H      0.09831486     2.11424651    -1.15284476
O     -1.90238438     0.04926544     0.22128190
H     -1.26637708    -0.66908199     0.11947001
H     -2.06497087     0.20543583     1.07791754
O     -0.04804787    -2.10568654    -0.23029448
H      0.70871277    -1.17864378    -0.18707246
H     -0.22794790    -2.10840544    -1.03849690
12
water clusters train frame=535
O      1.95808414    -0.03048585     0.15599404
H      1.39206999     0.77498175     0.13324182
H      2.06927804    -0.23124301     1.15879680
O     -0.01756173     1.75287049    -0.14636738
H     -0.61858259     1.23657360    -0.01484258
H      0.23120326     2.29676555    -0.99914976
O     -1.89967632    -0.11650750     0.18700949
H     -1.26048211    -0.68538810    -0.02142737
H     -2.09270859     0.20431271     0.98394231
O      0.10644173    -1.88247837    -0.09916957
H      0.66832800    -1.33113629    -0.03704087
H     -0.04591734    -2.07102616    -1.10736994
12
water clusters train frame=536
O      1.94518139    -0.02660914     0.14602252
H      1.32527231     0.66731407     0.09366322
H      2.09603738    -0.07814945     1.11513397
O      0.03439140     1.93245306    -0.25570619
H     -0.65637068     1.33304276    -0.12759720
H      0.19786979     2.02730953    -1.06256639
O     -1.92085875    -0.01646972     0.24020530
H     -1.34611851    -0.71774555     0.04868800
H     -2.10143879     0.09555846     1.06429390
O      0.03534072    -1.86758085    -0.12885694
H      0.66335479    -1.27943418    -0.02773949
H     -0.10968691    -2.06725369    -1.11657642
12
water clusters train frame=537
O      1.89339850     0.01151532     0.11026391
H      1.22200740     0.74600022     0.02557592
H      2.26176427    -0.03079262     1.09320484
O     -0.02651040     1.77814230    -0.18939919
H     -0.66506521     1.26447583    -0.21366492
H      0.09910418     2.12634697    -1.09540388
O     -1.95806757     0.02677652     0.21119275
H     -1.31956215    -0.71183832     0.14485271
H     -2.09292009     0.19525013     1.04532014
O     -0.07859708    -2.01228041    -0.07764051
H      0.76380773    -1.34190915    -0.16167585
H     -0.08249448    -2.11303603    -1.09729479
12
water clusters train frame=538
O      2.01954727    -0.09177771     0.11453609
H      1.40844197     0.52172090     0.18417441
H      2.09309271    -0.03801637     1.01219961
O      0.00071799     1.92502482    -0.16057374
H     -0.69513675     1.32136277    -0.02696379
H      0.02009201     1.93836836    -1.00664532
O     -1.87402313     0.06204333     0.17558274
H     -1.30685034    -0.75517241     0.01144066
H     -2.10030650     0.08952984     1.29054407
O      0.11270000    -1.94186083    -0.14830163
H      0.83424936    -1.38056836    -0.03107503
H     -0.07380175    -2.11546592    -0.89682868
12
water clusters train frame=539
O      1.90238022     0.01313429     0.14242661
H      1.29181434     0.69537075     0.05893026
H      2.23118113    -0.10466317     1.07951562
O     -0.01501728     1.97578586    -0.14794154
H     -0.58767935     1.24037402    -0.08702637
H      0.11136843     2.06639657    -1.07111154
O     -1.95203584    -0.07522224     0.18009749
H     -1.33328413    -0.67083098     0.03748147
H     -2.06070639     0.14837505     1.08832420
O      0.04025895    -2.02079220    -0.25288607
H      0.67298641    -1.28995091    -0.17140534
H     -0.12564027    -2.07719193    -1.10997649
12
water clusters train frame=540
O      1.96546028    -0.02578331     0.13543324
H      1.36980562     0.74693377     0.05854083
H      2.16116444    -0.15033986     1.12724765
O      0.09766771     1.95073019    -0.10285832
H     -0.63676398     1.25868427    -0.06513615
H      0.01984513     2.01658691    -1.08642990
O     -1.94169554     0.07258642     0.25398398
H     -1.35880459    -0.66798775     0.05861496
H     -2.06749621     0.21769024     1.10047273
O     -0.00939700    -1.97357269    -0.09907083
H      0.78618918    -1.34665038    -0.10057808
H     -0.17007532    -2.09422664    -1.17232950
12
water clusters train frame=541
O      1.82680089    -0.09081913    -0.05355803
H      1.15210865     0.69598889     0.13917072
H      2.12454260    -0.09760329     1.14956926
O      0.00410446     2.11758564    -0.14579450
H     -0.68813292     1.23747486    -0.17881276
H      0.12148695     2.02864383    -0.96521789
O     -1.91893377     0.03020657     0.08320480
H     -1.53311684    -0.80479688     0.09538069
H     -2.02267262     0.27821102     0.99243073
O      0.03696482    -2.04762745    -0.21131125
H      0.63208842    -1.22939919    -0.08851093
H     -0.20527014    -2.12336607    -1.06121250
12
water clusters train frame=542
O      1.98470944    -0.01952052     0.14653497
H      1.29437041     0.67757725     0.07293475
H      2.04123229    -0.13675970     1.05233228
O      0.01205371     1.91879640    -0.12709911
H     -0.68290101     1.20637013    -0.02900862
H      0.17885773     2.03586704    -1.05922782
O     -1.92503278    -0.00731394     0.13783191
H     -1.25355893    -0.65225078     0.13431133
H     -2.04339650     0.10749683     1.09687575
O     -0.00330244    -1.88998037    -0.16449622
H      0.71747546    -1.28092447    -0.11841759
H     -0.18443359    -2.07303937    -1.09283270
12
water clusters train frame=543
O      1.94114101    -0.08669897     0.11627838
H      1.27390183     0.68807415     0.04102150
H      2.06199733    -0.02888366     1.12224420
O      0.05307672     2.00656728    -0.14425150
H     -0.67003910     1.19219673     0.04738433
H      0.29128487     2.06045060    -1.06718418
O     -1.94748533    -0.06777825     0.13677007
H     -1.25899859    -0.65479696     0.11826353
H     -2.08367016     0.18578740     1.02692207
O      0.03113207    -2.00090599    -0.22918751
H      0.59775987    -1.28940252    -0.10456745
H      0.00989504    -2.13745807    -1.09643715
12
water clusters train frame=544
O      1.91187080     0.01383620     0.16990153
H      1.17918199     0.74751729     0.07639307
H      2.01320368    -0.06781648     1.20420117
O      0.00212329     2.05447800    -0.26378946
H     -0.59663336     1.14226882    -0.14671474
H      0.29567021     2.11694855    -1.06746457
O     -1.79839616    -0.04856194     0.04233635
H     -1.32047812    -0.61269198     0.19560958
H     -2.05237029     0.13330408     1.06829520
O     -0.01423084    -1.89246367    -0.16240512
H      0.50468613    -1.33874733    -0.24347620
H     -0.08275290    -2.02884685    -1.01237416
12
water clusters train frame=545
O      1.86170595     0.05067993     0.17173038
H      1.23717082     0.68316774     0.05650821
H      2.07516523    -0.16555972     1.06329632
O     -0.05892456     1.87940393    -0.20798779
H     -0.62059301     1.26213583    -0.10195204
H      0.13689248     2.08987896    -1.05074887
O     -2.03919778    -0.00781675     0.15274236
H     -1.27005788    -0.59375663     0.05958758
H     -2.07478967     0.11531114     1.10563520
O     -0.01262967    -1.94428786    -0.10274502
H      0.67596842    -1.20185873    -0.07020518
H     -0.10796081    -2.12298490    -1.06609532
12
water clusters train frame=546
O      1.90124414    -0.14586178     0.06814679
H      1.24142714     0.63210707     0.01819185
H      2.07143528    -0.21422306     1.10312061
O     -0.12257356     1.97931293    -0.16610396
H     -0.60916107     1.30354487    -0.11572586
H      0.22656027     2.15626298    -1.13302850
O     -2.01817072    -0.02346793     0.21145495
H     -1.16067256    -0.74526891     0.04792078
H     -2.20957421     0.13883268     1.18998509
O      0.04632174    -2.00667680    -0.11705292
H      0.55696037    -1.24104338    -0.11051977
H     -0.15658690    -2.18704787    -0.89583897
12
water clusters train frame=547
O      1.98642426    -0.02454908     0.13781819
H      1.27730508     0.66269997     0.17929726
H      2.08736625    -0.17464203     1.02518913
O      0.09490128     1.96012201    -0.12732792
H     -0.73447577     1.25251094    -0.10177747
H      0.06080775     1.95458331    -0.92529842
O     -1.88974892     0.22088597     0.15407386
H     -1.28009352    -0.63821261     0.05321279
H     -2.06570571     0.05348992     1.04845539
O     -0.08664981    -1.92602127    -0.18729631
H      0.60859003    -1.30522591    -0.01662368
H      0.02901061    -1.99797886    -1.09339223
12
water clusters train frame=548
O      1.96813732     0.03959051     0.24860984
H      1.32136265     0.70028613     0.12230809
H      2.06965154    -0.13849362     1.03514977
O     -0.05812953     2.00107325    -0.10257911
H     -0.72249767     1.28353463    -0.10614264
H      0.11657770     2.13783253    -1.08506136
O     -1.94688990    -0.02455411     0.11864360
H     -1.26501202    -0.61621422     0.08560726
H     -2.06487900     0.08458565     1.05841576
O      0.03394955    -1.96605601    -0.14333603
H      0.70305760    -1.22195053    -0.09611902
H     -0.16637790    -2.04990631    -1.11011779
12
water clusters train frame=549
O      1.88537698     0.08807364     0.19036685
H      1.26231269     0.73872654     0.05059604
H      2.12330426    -0.07015024     1.05212655
O      0.13002191     1.88990334    -0.12961114
H     -0.72431110     1.31254499    -0.19106833
H      0.14058916     2.13433555    -1.08833096
O     -1.97985925     0.07118082     0.26237297
H     -1.27446589    -0.63500298     0.09621380
H     -1.92594840     0.08384669     1.16925780
O      0.00013772    -2.03411778    -0.15342763
H      0.59392717    -1.32413491    -0.09513631
H     -0.08900571    -2.10480287    -1.12295751
12
water clusters train frame=550
O      1.91403804     0.09933568     0.15476436
H      1.26835719     0.69195894     0.07146874
H      2.05140288    -0.07299251     1.10362804
O      0.04907848     1.83514169    -0.07700998
H     -0.64467187     1.35949043    -0.17587411
H      0.11142577     2.02650177    -0.94479446
O     -1.95534922     0.02101668     0.09457111
H     -1.37943079    -0.80047037     0.21536265
H     -1.97124755     0.18282886     1.03465606
O     -0.04531872    -1.99611910    -0.17261549
H      0.75342813    -1.35246697    -0.01977673
H     -0.06462105    -2.16838234    -1.07406695
12
water clusters train frame=551
O      1.96350244     0.01055100     0.13376165
H      1.26020078     0.60055796     0.12208614
H      2.05721397    -0.15464308     1.13892324
O     -0.00449341     1.94278250    -0.12443004
H     -0.66846707     1.21290845    -0.11528154
H      0.11407855     2.04790015    -1.06358254
O     -1.94645801    -0.00234440     0.13214117
H     -1.27990166    -0.67212615     0.09040532
H     -2.10093425     0.10691317     1.03352914
O     -0.01460349    -1.96158197    -0.24757379
H      0.64109044    -1.28566382    -0.12090588
H     -0.09561051    -2.10455144    -1.08801971
12
water clusters train frame=552
O      1.94188862    -0.12899417     0.15400113
H      1.26955193     0.62419060     0.08553209
H      2.08654008    -0.04620646     1.02029257
O     -0.02180898     1.88653570    -0.18128545
H     -0.59068883     1.29027544    -0.09884646
H      0.12918145     2.10931794    -1.08967653
O     -1.99461836     0.05572958     0.15306244
H     -1.25360066    -0.71005382     0.03438569
H     -2.02314124     0.04044935     1.07889669
O      0.00950619    -2.00573598    -0.30169608
H      0.59243538    -1.38858233    -0.02504369
H     -0.13639269    -2.10456744    -1.09349889
12
water clusters train frame=553
O      1.91828851    -0.04161860     0.24549772
H      1.27644549     0.64058762     0.11688773
H      2.06299492    -0.03662908     1.09069591
O      0.07718825     1.92001107    -0.16826679
H     -0.68950870     1.20254283    -0.11293686
H      0.14085623     2.00742972    -1.19538924
O     -1.96264524    -0.05063239     0.11192931
H     -1.25516537    -0.68888468     0.11273791
H     -2.02885476     0.12994955     1.05800864
O     -0.11218691    -2.06401455    -0.15383978
H      0.67729284    -1.30224539    -0.05375854
H     -0.13905054    -2.12831147    -0.99777703
12
water clusters train frame=554
O      1.92727666     0.01310903     0.12003593
H      1.30359032     0.54593890     0.12486165
H      2.08362806    -0.10765863     1.07120729
O     -0.08055972     1.96036433    -0.18604056
H     -0.69039489     1.30628021    -0.08991363
H      0.05911539     2.08722187    -1.10624581
O     -1.96467831    -0.01369809     0.17675238
H     -1.26362783    -0.67570429     0.10086283
H     -2.11302988     0.14361532     1.08469678
O     -0.02038356    -1.91706550    -0.24828994
H      0.65516282    -1.35677535    -0.14876223
H     -0.15301500    -2.13614376    -1.03607984
12
water clusters train frame=555
O      1.92119729    -0.04398553     0.04352619
H      1.25959549     0.73604708     0.25037086
H      2.03122455    -0.14729598     1.00708328
O     -0.05100515     1.97440845    -0.17113526
H     -0.70236846     1.19951245    -0.09434834
H      0.19612332     2.17184614    -1.09059199
O     -2.03148937     0.05997999     0.05240907
H     -1.31274424    -0.64894271     0.12197021
H     -2.07738580     0.21562735     1.07703199
O      0.09300894    -1.99928269    -0.19084519
H      0.78873830    -1.31542421    -0.13158295
H     -0.15317343    -2.16530749    -0.96378719
12
water clusters train frame=556
O      2.00543409     0.02487773     0.10485048
H      1.28052394     0.74239253     0.06750504
H      2.17756341    -0.16304508     1.19232984
O      0.04212791     2.09054360    -0.14855268
H     -0.65401483     1.29488595    -0.03013623
H      0.15773291     2.03317607    -1.07542403
O     -1.90213128    -0.08657083     0.12936198
H     -1.09476166    -0.66709911     0.12089444
H     -2.07809827     0.19432569     1.16564128
O      0.04992808    -1.95963186    -0.23404502
H      0.65183500    -1.18137502     0.03579848
H     -0.11354771    -2.23770449    -1.10296624
12
water clusters train frame=557
O      1.93303396    -0.02120150     0.16478889
H      1.25900038     0.68905111     0.04461429
H      2.11185008    -0.09924140     1.13202828
O     -0.04402226     1.97184506    -0.18802448
H     -0.62316836     1.27750242    -0.13279017
H      0.27995590     2.10567705    -1.07164896
O     -1.96145455    -0.09485402     0.13536428
H     -1.31020053    -0.71362430     0.08244472
H     -2.09899194     0.06222369     1.12320269
O     -0.01117940    -1.94162789    -0.17102048
H      0.62885212    -1.20212597    -0.04981376
H     -0.12864426    -2.10190438    -1.08600506
12
water clusters train frame=558
O      1.91886170     0.13000791     0.13059512
H      1.32640250     0.66503881     0.07150119
H      2.06776952    -0.15413166     1.00264949
O      0.05166902     1.87010231    -0.18791652
H     -0.63663768     1.26460797    -0.20870220
H      0.09403954     2.07744842    -1.02591177
O     -1.88348890     0.02287556     0.15186529
H     -1.25259732    -0.64224720     0.02773443
H     -2.13268062     0.17822458     1.07860389
O      0.07656719    -2.03397058    -0.10298187
H      0.64596693    -1.27834173    -0.09437175
H     -0.27081095    -2.05150590    -1.09122418
12
water clusters train frame=559
O      1.97848181     0.21568417     0.13739581
H      1.23985432     0.65887706     0.10953076
H      1.97462859    -0.17363626     1.11540511
O      0.09712067     2.05684119    -0.18667820
H     -0.63562206     1.38501472    -0.16262509
H      0.21461227     2.09749802    -1.18025826
O     -1.95497662     0.01959230     0.02254453
H     -1.21362837    -0.58785067     0.04210453
H     -2.07352796     0.17559303     0.92964142
O     -0.01822199    -1.89300744    -0.05200432
H      0.68955053    -1.15343547    -0.06839567
H     -0.10639909    -2.07516630    -1.05610086
12
water clusters train frame=560
O      1.96280914    -0.00091776     0.12196983
H      1.24077629     0.61373371     0.05776399
H      2.05795691    -0.08024662     1.08337113
O     -0.01836663     1.89849331    -0.19262189
H     -0.67981780     1.22421477    -0.11071354
H      0.13213973     2.13667552    -1.11226040
O     -1.95011779     0.04011474     0.12214063
H     -1.28899339    -0.66733478     0.05856185
H     -2.10297416     0.10016210     1.07621422
O     -0.02472659    -1.87286917    -0.17710046
H      0.65833231    -1.32752318    -0.09526752
H     -0.12578136    -2.02758100    -1.09580160
12
water clusters train frame=561
O      1.87210425     0.03814962     0.19776666
H      1.30977652     0.61740943     0.09709979
H      2.06904305    -0.07190405     1.14079514
O     -0.01874943     1.88719892    -0.13807819
H     -0.73731703     1.19214434    -0.05365028
H      0.14979498     2.09277436    -1.03229024
O     -1.99524880     0.04538449     0.18815696
H     -1.26574002    -0.76450385     0.11185990
H     -2.15905351     0.24532071     1.24614834
O      0.01484742    -2.02610345    -0.14615422
H      0.70428883    -1.30416941    -0.19098885
H     -0.10860843    -2.01152232    -1.07216031
12
water clusters train frame=562
O      1.92162365     0.15923662     0.14736371
H      1.27950608     0.73578100     0.07114366
H      1.99770363    -0.04200497     1.13030782
O      0.10064651     1.86829241    -0.25781491
H     -0.75343267     1.16720866     0.01321179
H      0.06893517     2.16170262    -1.12589946
O     -1.93073155    -0.04508758     0.23364924
H     -1.31757971    -0.75247799     0.02662521
H     -2.08727605     0.13429376     1.18104915
O     -0.00150628    -2.18269119    -0.08316886
H      0.64772580    -1.32754914    -0.12854506
H     -0.15361124    -2.12024599    -1.05256282
12
water clusters train frame=563
O      1.94383853    -0.02037934     0.12113127
H      1.25097262     0.70460586     0.06514107
H      1.99261809    -0.20274419     1.12296793
O      0.03989912     1.96305452    -0.08216649
H     -0.67141843     1.25295214    -0.09054400
H      0.17629573     2.02787339    -1.10739210
O     -1.90003102     0.08962518     0.15802292
H     -1.28575224    -0.66004584     0.12185251
H     -2.10960935     0.10599245     1.07262928
O     -0.01095346    -1.95097285    -0.19481630
H      0.62777663    -1.31502713    -0.08139717
H     -0.20475734    -2.14062737    -1.08621210
12
water clusters train frame=564
O      1.94006575    -0.10770511     0.17469561
H      1.30168314     0.61463620     0.13920468
H      2.12189393    -0.11688188     0.98941664
O     -0.01003795     1.92379445    -0.07504533
H     -0.72109219     1.37141575    -0.15968860
H      0.10161847     2.10290177    -1.09198005
O     -2.05014325    -0.01235110     0.13474125
H     -1.18792271    -0.79096746     0.07632134
H     -2.06009702     0.14859353     1.15018163
O     -0.00072286    -2.01543079    -0.08778470
H      0.59486861    -1.25097974    -0.09419693
H     -0.17307722    -2.08581981    -1.13671671
12
water clusters train frame=565
O      1.82247952     0.15778672     0.19560408
H      1.20259020     0.69792696     0.10337139
H      2.05352478    -0.00594028     1.03559071
O      0.06483058     1.94411498    -0.13460800
H     -0.84246276     1.13488033    -0.08608377
H      0.18532386     2.05859870    -1.11411227
O     -2.21081618     0.00228160     0.09688338
H     -1.28237565    -0.61568788     0.23344870
H     -2.09994925     0.15432589     1.28261097
O      0.07892362    -2.10072256    -0.24080688
H      0.59852397    -1.34256278    -0.22027799
H     -0.17560152    -2.23465674    -1.09660716
12
water clusters train frame=566
O      1.83888258     0.03551759     0.18688530
H      1.27750999     0.69690782     0.13218530
H      2.08900946    -0.13596689     1.06899467
O     -0.01462756     1.90671239    -0.21787157
H     -0.69715820     1.28355360    -0.06208503
H      0.14741528     2.10193773    -1.06141279
O     -1.95044581     0.03150159     0.12608384
H     -1.32063296    -0.68185818     0.10496692
H     -2.09636067     0.15014629     1.11276818
O     -0.02971940    -1.99547348    -0.18951627
H      0.72578816    -1.30291006    -0.07864492
H     -0.13380052    -2.07374115    -1.12744620
12
water clusters train frame=567
O      1.82729047     0.10208253     0.09298042
H      1.13886310     0.64441753    -0.05066128
H      2.02793235    -0.22532522     1.05985302
O     -0.06863541     1.96442512    -0.12505665
H     -0.72974417     1.33161375    -0.08785797
H      0.01138394     2.03147248    -1.19155363
O     -1.84803283     0.02544124     0.13066716
H     -1.25139398    -0.71099267     0.00871873
H     -2.10396809     0.21307151     0.92324830
O      0.05172032    -1.90493710    -0.14551026
H      0.74562290    -1.17145912    -0.15123372
H     -0.24760736    -2.14557309    -1.11102362
12
water clusters train frame=568
O      1.98161130     0.07758013     0.20879699
H      1.27916990     0.72001355     0.01243864
H      2.04784657    -0.03979151     1.15759345
O      0.02471566     2.08225123    -0.06323439
H     -0.80259010     1.32268222    -0.04063518
H      0.06677737     2.05061151    -1.10515625
O     -2.01884838     0.01354714     0.15613106
H     -1.34420423    -0.64823067     0.10730435
H     -2.18372857     0.09464404     1.04955381
O     -0.07395467    -1.95973536    -0.15813655
H      0.63463235    -1.25335658    -0.17033227
H     -0.07126342    -2.00608126    -1.02151543
12
water clusters train frame=569
O      1.98009114     0.01557489     0.15763295
H      1.30664735     0.64163744     0.15843995
H      2.05425819    -0.10610605     1.10650687
O     -0.05558750     1.96526130    -0.07707726
H     -0.73597244     1.28294761    -0.08275124
H      0.12808457     2.08784876    -1.03127014
O     -1.97642642     0.04243673     0.17675361
H     -1.23199883    -0.69433225     0.10648432
H     -2.02622327     0.20831584     1.05308203
O     -0.05676934    -1.95798413    -0.20616796
H      0.65662588    -1.29918324    -0.08266667
H     -0.12577672    -2.02622601    -1.07209415
12
water clusters train frame=570
O      1.93329217     0.00312143     0.10508800
H      1.39610242     0.72264237     0.03384715
H      2.09021758    -0.17670720     1.16061479
O      0.06070322     2.03357672    -0.09988801
H     -0.73291454     1.18954383    -0.06295450
H      0.15141595     2.08770854    -1.12748150
O     -1.87854294     0.06146094     0.16113777
H     -1.27219175    -0.68680466     0.10269148
H     -2.08919125     0.19387435     1.12617744
O     -0.07459553    -1.96123901    -0.16811285
H      0.70392025    -1.28598926    -0.04950532
H     -0.21370635    -2.13124468    -1.09264347
12
water clusters train frame=571
O      1.96134124     0.04741122     0.02606786
H      1.28988338     0.65977020    -0.00206512
H      2.04889175    -0.14482848     1.03670735
O      0.02767274     2.05011269    -0.08423703
H     -0.59276091     1.22286646    -0.02212551
H      0.20312812     2.00043855    -1.22889529
O     -2.07959620     0.00060542     0.12760489
H     -1.21791635    -0.71106391     0.12043315
H     -1.87971307     0.27967434     0.87281074
O      0.00124736    -1.90150056    -0.10562814
H      0.73546680    -1.29569571    -0.16171533
H     -0.09171292    -2.19987089    -1.14285940
12
water clusters train frame=572
O      2.00182873     0.02432786     0.13965396
H      1.28963461     0.66334525     0.04865522
H      2.05191601    -0.06922534     1.16600449
O     -0.00821161     1.90906122    -0.20351000
H     -0.68910502     1.27773048    -0.08045522
H      0.15899932     2.14727366    -1.15070011
O     -1.97328735    -0.06238859     0.17017586
H     -1.27771049    -0.69029368     0.09511473
H     -2.06770973     0.20469031     1.09784895
O      0.04206539    -1.83108769    -0.13563576
H      0.64341796    -1.25208530    -0.09426144
H     -0.13707938    -2.06418667    -1.11873176
12
water clusters train frame=573
O      1.98304574     0.02424528     0.14114934
H      1.29771576     0.66631286     0.15012809
H      2.01929495    -0.12802517     0.98370045
O     -0.06566097     1.94856892    -0.12526550
H     -0.62242713     1.23836213    -0.05757266
H      0.19988601     2.00489854    -1.07186861
O     -1.94566965     0.05080857     0.10428465
H     -1.17723134    -0.66728236     0.15666215
H     -2.13578401     0.13411404     1.20772350
O     -0.00648242    -2.02224226    -0.14894379
H      0.69855366    -1.17097029    -0.14348516
H     -0.11653889    -2.19787080    -1.08267129
12
water clusters train frame=574
O      1.82773561    -0.03254893     0.14604166
H      1.23941737     0.65462062     0.04129068
H      1.97066967    -0.13670503     0.94901405
O      0.09151650     2.02741187    -0.22266053
H     -0.74369246     1.31331282    -0.01061049
H      0.11067106     2.03399147    -0.97493345
O     -1.82500957    -0.00827088     0.21225840
H     -1.36022788    -0.72027575     0.09549838
H     -2.07309398     0.05865523     1.16278799
O      0.19655038    -1.96821599    -0.20990820
H      0.69982209    -1.27068329    -0.19581260
H     -0.13967533    -1.96613767    -1.29525309
12
water clusters train frame=575
O      1.90655081    -0.00683895     0.14581447
H      1.25957193     0.63396749     0.09984182
H      2.07319268    -0.06814682     1.13345889
O     -0.01915873     1.96696045    -0.28450933
H     -0.65480181     1.21428360    -0.15404515
H      0.19176160     2.09558345    -1.09064902
O     -1.91042163    -0.02037750     0.08921861
H     -1.27832564    -0.65710506     0.05868462
H     -2.04955780     0.18962977     1.11992288
O     -0.05851314    -1.92228243    -0.13736779
H      0.62629730    -1.21297944    -0.02619383
H     -0.11402129    -2.07522893    -1.06065955
12
water clusters train frame=576
O      2.01490587    -0.00919832     0.10439555
H      1.21060079     0.73127951     0.18630183
H      2.14243694    -0.15849986     1.18825430
O     -0.10858290     1.95093781    -0.26412777
H     -0.76642122     1.24074740    -0.11127836
H      0.12496049     2.11308924    -1.04164661
O     -1.88592748    -0.02101973     0.14896081
H     -1.22057738    -0.67922005     0.01026591
H     -2.16415910     0.20462847     1.07653446
O      0.05193925    -1.92146431    -0.20189056
H      0.71145594    -1.27266704    -0.00985501
H     -0.16906698    -2.07914148    -1.07321502
12
water clusters train frame=577
O      1.92597213    -0.16094867     0.17598667
H      1.36093705     0.68565798     0.27611146
H      2.09724733    -0.12982958     1.02789134
O     -0.00524744     1.93882302    -0.18292286
H     -0.66504309     1.21928062    -0.02376408
H     -0.05111791     2.16528010    -1.20185901
O     -2.13173746     0.10399680     0.18812810
H     -1.36817931    -0.75046811    -0.00694938
H     -2.13610933     0.07227223     1.07174504
O      0.00297999    -1.94855876    -0.16402322
H      0.75338216    -1.24454144     0.05403937
H     -0.00197482    -1.98577219    -1.06969898
12
water clusters train frame=578
O      1.91340028     0.01082778     0.10002514
H      1.23699094     0.75121878     0.09469448
H      2.02039278    -0.09093842     1.12760222
O      0.09276154     1.99941890    -0.21284864
H     -0.63261118     1.21362780    -0.04009579
H      0.06929802     2.10896100    -1.04536685
O     -1.90111471    -0.04746867     0.16389222
H     -1.28876847    -0.74964811     0.05043355
H     -2.09175580     0.11845382     1.06765795
O      0.00036588    -1.91859982    -0.07493221
H      0.66939934    -1.31421446    -0.11864224
H     -0.08820391    -2.11434946    -1.05982035
12
water clusters train frame=579
O      2.03167035    -0.00083808     0.17580110
H      1.28659418     0.61925335     0.14840356
H      2.14499089    -0.10569644     1.16677329
O     -0.06489896     1.93204099    -0.13938537
H     -0.71342909     1.21869846    -0.10959860
H      0.24132161     2.10260983    -1.08236062
O     -1.85103616    -0.02395672     0.18933728
H     -1.33356375    -0.76753869     0.09514850
H     -2.10608870     0.06287134     1.19448786
O      0.05417149    -1.92989819    -0.07672532
H      0.60615532    -1.34359583    -0.15603848
H     -0.24395162    -2.13902981    -1.04562724
12
water clusters train frame=580
O      2.01294545     0.02326118     0.08935946
H      1.22943161     0.84295093     0.12629344
H      2.06377383    -0.18656962     1.25758367
O     -0.06119163     1.99210721    -0.19330958
H     -0.74719540     1.36267771    -0.23221463
H      0.13969640     2.09300592    -1.18418283
O     -1.83262578    -0.05269694     0.21002592
H     -1.30077327    -0.61216108     0.06663552
H     -2.16342312     0.03537389     0.94187843
O      0.00518770    -1.96936647    -0.09035547
H      0.77269474    -1.18918706     0.03857544
H     -0.04865289    -2.11327883    -1.14905044
12
water clusters train frame=581
O      1.96018945    -0.05735325     0.17088401
H      1.31860668     0.68169417     0.03056435
H      2.16834424    -0.07180634     1.11152851
O     -0.06783107     1.98458614    -0.08345319
H     -0.67065826     1.29827984    -0.06762862
H      0.11801871     2.10225620    -1.09513906
O     -1.98185484    -0.00041990     0.12872131
H     -1.26955841    -0.58835445     0.06610906
H     -2.06080950     0.12846588     1.01973916
O      0.01881253    -1.96692630    -0.21017462
H      0.63481023    -1.32170023    -0.15084902
H     -0.15894723    -2.04715631    -1.08389528
12
water clusters train frame=582
O      1.92549118    -0.00368424     0.05805367
H      1.35768685     0.73935681     0.15987821
H      2.08770210    -0.06685831     1.15105048
O      0.01791738     1.90867384    -0.20390124
H     -0.63138819     1.38145788    -0.08798213
H      0.10287680     2.03419656    -1.18004124
O     -1.96752362     0.01394501     0.14969273
H     -1.22160640    -0.70356075     0.14643778
H     -2.14981669     0.12322283     1.07840887
O      0.05353288    -1.83923959    -0.14246452
H      0.72944541    -1.26299065    -0.11578693
H     -0.16683320    -2.09190692    -1.09051335
12
water clusters train frame=583
O      1.88177336    -0.10911438     0.07701129
H      1.10698677     0.68802602     0.14437960
H      2.04381942    -0.09802002     1.26981653
O      0.04897419     1.92875708    -0.18004068
H     -0.69637462     1.30605396    -0.16075737
H      0.15352795     2.01565416    -1.04544497
O     -1.98755968     0.02618579     0.24629810
H     -1.25037623    -0.57781199     0.08974985
H     -2.14440550     0.14649692     1.03855778
O      0.13331889    -2.00585397    -0.11714658
H      0.72008012    -1.27199058    -0.13715851
H     -0.16482900    -2.14409720    -1.19148824
12
water clusters train frame=584
O      1.99081385    -0.04429545     0.17052033
H      1.28340201     0.62552591     0.15967323
H      2.07874453    -0.13803798     1.06648265
O     -0.01727556     1.95124818    -0.20719331
H     -0.71066168     1.24352804    -0.11083008
H      0.17727921     2.05167484    -1.18903151
O     -1.95927580     0.06893348     0.14662491
H     -1.23835505    -0.71178251     0.16664983
H     -2.05711178     0.16371140     1.14110218
O      0.02895935    -1.97328431    -0.18162452
H      0.63338715    -1.25218481    -0.08421729
H     -0.15274703    -2.07277710    -1.11673389
12
water clusters train frame=585
O      1.86386842    -0.03142617     0.19065017
H      1.30893168     0.69863272     0.13213730
H      2.09382978    -0.14915944     0.96387180
O     -0.04836356     1.90055673    -0.11168662
H     -0.71060260     1.25237359    -0.07724754
H      0.06433474     2.14531799    -1.15737071
O     -1.88455385     0.01018020     0.12677350
H     -1.31752628    -0.57303417     0.11562735
H     -2.13206750     0.09908602     1.15248516
O     -0.05401055    -1.81802044    -0.09386191
H      0.83535542    -1.24961851    -0.17023457
H     -0.11502277    -2.17185070    -1.11779532
12
water clusters train frame=586
O      2.02191984     0.10731382     0.03219386
H      1.28839450     0.58991036     0.21232769
H      2.00175652    -0.11908295     1.06473085
O      0.04295818     1.92617941     0.03243784
H     -0.82224449     1.22798332    -0.06620701
H      0.01691239     2.06019029    -1.08813976
O     -1.95173393     0.04059601     0.08063335
H     -1.17446232    -0.70800509     0.01366939
H     -2.22100978     0.06486382     0.97422633
O     -0.06297749    -1.94914632    -0.14352181
H      0.68929695    -1.20878810    -0.02039690
H     -0.15361060    -2.22700354    -1.20756559
12
water clusters train frame=587
O      1.96109277     0.03026432     0.10440682
H      1.25834390     0.69357922     0.08892088
H      2.08344543    -0.19394058     1.04367327
O     -0.01277830     1.96285771    -0.12395143
H     -0.60644969     1.31388741    -0.13499597
H      0.10007802     2.13596013    -1.07085502
O     -1.97704570     0.06457595     0.10745157
H     -1.33105226    -0.66549971     0.02234436
H     -2.09027042     0.11044395     1.00647162
O     -0.04967853    -1.94497801    -0.15002354
H      0.72997843    -1.26856659    -0.10506992
H     -0.16546912    -2.10330988    -0.98978744
12
water clusters train frame=588
O      2.01533004     0.05926949     0.07724687
H      1.27014307     0.72242746     0.18197282
H      2.08175364    -0.20005390     1.02246204
O     -0.04941460     1.93806133    -0.26028484
H     -0.62216055     1.24635025    -0.08393970
H      0.12598364     2.09343182    -1.11832496
O     -1.96026099    -0.02268615     0.18399482
H     -1.26199189    -0.59007614     0.14603849
H     -2.10268511     0.07502884     1.08534469
O     -0.02193178    -2.00411659    -0.03326722
H      0.80372085    -1.33400686    -0.18647578
H     -0.18236685    -1.98562474    -1.15117602
12
water clusters train frame=589
O      2.00696056    -0.07652863     0.04874028
H      1.27832420     0.69133817     0.05887385
H      2.15480341    -0.07072059     1.09915539
O      0.01253527     1.79827119    -0.00269286
H     -0.55080394     1.11053121    -0.03019636
H      0.03209223     2.11597300    -1.08821677
O     -1.90799141     0.07872733     0.17620507
H     -1.22305234    -0.67833967     0.10966912
H     -2.12080006    -0.03742170     1.16095219
O     -0.06354799    -1.96909369    -0.13939604
H      0.68751526    -1.28181665    -0.18291596
H     -0.02188842    -2.06488678    -1.07090340
12
water clusters train frame=590
O      1.96734404     0.03162577     0.15663205
H      1.29583932     0.58221348     0.09890800
H      2.11086922    -0.08802345     1.05623180
O     -0.01288182     2.03786451    -0.18654929
H     -0.64719995     1.30892347    -0.05848498
H      0.14846644     2.09780894    -1.05163366
O     -2.01554916     0.02953957     0.15914878
H     -1.31298320    -0.69930279     0.04847964
H     -2.05276588     0.09703920     1.13268390
O      0.04386648    -1.95470387    -0.10451824
H      0.60679902    -1.28169891    -0.05943093
H     -0.17293322    -2.10854151    -1.10794180
12
water clusters train frame=591
O      1.93117856    -0.03743474     0.15382547
H      1.26835347     0.70022790     0.07882287
H      2.15292395    -0.06262666     1.10693128
O     -0.00934133     1.85831669    -0.13122164
H     -0.68882841     1.31988151    -0.14362953
H      0.15781917     2.16458510    -1.00624700
O     -1.95990647    -0.05661439     0.23977476
H     -1.25226556    -0.64892303    -0.00141306
H     -2.06875275     0.14848879     1.06781968
O      0.04549958    -1.96485559    -0.17062959
H      0.61711096    -1.30679615    -0.12826665
H     -0.17184796    -2.12664794    -1.04782871
12
water clusters train frame=592
O      2.04742507    -0.04637550     0.14352401
H      1.23612408     0.79272460     0.19875525
H      2.14267374     0.00970300     1.03988142
O     -0.08293987     1.93631903    -0.06014267
H     -0.68196710     1.10489236    -0.18199514
H      0.13954284     2.13190604    -1.13898042
O     -1.88811723     0.00210560     0.04852929
H     -1.41155735    -0.71551860     0.17106830
H     -2.24440746     0.07167826     1.10783180
O     -0.06492700    -2.07009029    -0.21740926
H      0.70564294    -1.26355439    -0.06922046
H     -0.10867935    -2.09714969    -0.98805888
12
water clusters train frame=593
O      1.94529568    -0.02182399     0.14685702
H      1.21944676     0.66868123     0.12995565
H      2.18076930    -0.08020994     1.02413029
O      0.00845251     1.96855351    -0.12927569
H     -0.71117263     1.33970496    -0.11130019
H      0.17545084     2.11618175    -1.13491075
O     -1.88696256    -0.02214770     0.12557836
H     -1.27955210    -0.70344536     0.10983615
H     -2.09792187     0.20026084     1.03352241
O      0.03357119    -1.94227581    -0.18117228
H      0.69248115    -1.25601144    -0.06090522
H     -0.13646997    -2.07050023    -1.12660460
12
water clusters train frame=594
O      1.96511931     0.00478628     0.16390371
H      1.28370427     0.63540614     0.10183493
H      2.03144284    -0.11538512     1.02586174
O     -0.01239282     2.04246131    -0.16080894
H     -0.61799730     1.26555292    -0.13966415
H      0.22874866     2.02866967    -1.15934610
O     -1.92918909    -0.00432784     0.14411914
H     -1.31048350    -0.63830840     0.26322304
H     -2.07451268     0.19016348     1.15920742
O     -0.04435469    -1.97093325    -0.11881604
H      0.69500517    -1.28870091    -0.20043425
H     -0.11625767    -2.00133810    -1.12167287
12
water clusters train frame=595
O      1.80460962    -0.03043083     0.11159312
H      1.15884175     0.73603613     0.11433386
H      2.16079556    -0.14071188     1.17125069
O      0.06238685     1.96974838    -0.11926622
H     -0.58057104     1.25980521    -0.02998991
H      0.19179381     2.00601924    -1.05545659
O     -1.96446624    -0.08082600     0.20560721
H     -1.34632483    -0.65363280    -0.01149830
H     -2.07735784     0.06459994     1.10001665
O     -0.00171844    -2.05408732    -0.12567963
H      0.64624345    -1.30945200    -0.09587447
H     -0.10857762    -2.13405749    -1.14419077
12
water clusters train frame=596
O      1.93841015     0.00052016     0.08197072
H      1.26280399     0.65956336     0.07179373
H      2.13608262    -0.16223947     1.06058080
O     -0.04180328     1.89112210    -0.06887949
H     -0.60391489     1.17729979    -0.06409414
H      0.14929323     2.05549979    -1.11713816
O     -1.96725094     0.04828888     0.18451326
H     -1.31456502    -0.58683486     0.13185455
H     -2.02090281     0.06504066     1.05806363
O     -0.05348636    -1.97661776    -0.07826185
H      0.70353859    -1.30642442    -0.08879533
H     -0.13346667    -2.11441717    -1.19507881
12
water clusters train frame=597
O      1.93602445    -0.05664451     0.12264138
H      1.27140400     0.74147681     0.06092737
H      2.01239762    -0.14374753     1.05143591
O      0.02355535     1.87870309    -0.16111759
H     -0.65739448     1.31278710    -0.09480760
H      0.16732649     2.06621522    -1.14442213
O     -1.99443555     0.06955225     0.17452046
H     -1.32063819    -0.65981891     0.10333669
H     -2.07495007     0.11351846     1.05648450
O      0.09641175    -2.01766184    -0.20228993
H      0.70855635    -1.33307429    -0.03445443
H     -0.10220526    -2.11510472    -1.13458732
12
water clusters train frame=598
O      1.92107984    -0.10102488     0.19040278
H      1.31485079     0.60675844     0.21432692
H      1.88073758    -0.10746188     1.09538166
O      0.02516933     1.92758112    -0.16142767
H     -0.69124605     1.21222353     0.04653220
H      0.25085348     2.16159953    -1.10026524
O     -1.97883854     0.08823232     0.16617396
H     -1.44066244    -0.68602037     0.03882370
H     -2.09900496     0.02606784     1.18818225
O      0.02958692    -1.89737847    -0.17449281
H      0.62817257    -1.36488865    -0.10848463
H     -0.22326870    -1.97503393    -0.90339446
12
water clusters train frame=599
O      2.05425356    -0.02176843     0.14189674
H      1.28985931     0.68658449     0.16674154
H      2.04766259    -0.15778803     1.09117813
O     -0.06967814     1.91084979    -0.17696411
H     -0.62696717     1.27121043    -0.09470067
H      0.16737341     2.08449082    -1.17785647
O     -1.98850072     0.07984182     0.12393111
H     -1.25014743    -0.63845152     0.05775312
H     -2.11693793     0.18978663     1.10411488
O      0.00636824    -1.94816022    -0.14822192
H      0.67228129    -1.25224775    -0.13795911
H     -0.17179246    -2.06194460    -1.10417555
12
water clusters train frame=600
O      2.01013736    -0.04570013     0.14205262
H      1.22835565     0.69878125     0.14323687
H      2.08174776    -0.20428268     1.10974867
O      0.13514101     2.03875463    -0.14243794
H     -0.75250455     1.23044725    -0.10799398
H      0.13661763     2.01737615    -1.07291980
O     -1.99108537     0.04290068     0.01700181
H     -1.39670465    -0.61840740     0.04547184
H     -2.06946359     0.14383422     1.15382988
O     -0.05282190    -2.00886073    -0.12659763
H      0.73336635    -1.15771961    -0.24655985
H     -0.15048090    -2.05985258    -1.10584359
12
water clusters train frame=601
O      1.98819434    -0.10470816     0.01373299
H      1.23329622     0.72507349     0.10003906
H      2.05253980    -0.23780016     1.13487761
O     -0.05366137     2.08436655    -0.04468492
H     -0.63387516     1.32438940    -0.03742557
H     -0.00052831     2.00778121    -1.13781596
O     -2.04510216    -0.07917129     0.22777695
H     -1.14203226    -0.66658068     0.04587670
H     -2.09969831     0.14853719     1.03829796
O      0.09853861    -1.94780919    -0.04843817
H      0.65494881    -1.19122910    -0.16266510
H     -0.24519346    -2.03434575    -1.20854229
12
water clusters train frame=602
O      1.91652410    -0.03432254     0.13133907
H      1.27601075     0.65297989     0.10266618
H      2.08120123    -0.16318249     1.11617778
O      0.00374020     1.97645400    -0.11002246
H     -0.64952629     1.23168016    -0.09650004
H      0.10450796     2.06835203    -1.10788024
O     -1.96711135    -0.01389088     0.24015995
H     -1.23655127    -0.71465720     0.08097377
H     -2.08930052     0.11764602     1.09065526
O     -0.02981375    -2.06504754    -0.22414888
H      0.63628095    -1.36094443    -0.07252651
H     -0.16758814    -2.06754850    -1.09341272
12
water clusters train frame=603
O      1.85749942    -0.18825343     0.20156580
H      1.30404688     0.63590200     0.05094226
H      2.13637064    -0.17299830     1.02021262
O      0.06652796     1.95165322    -0.12223057
H     -0.55443967     1.27813831    -0.18863183
H      0.06307620     1.98404640    -1.11665012
O     -1.87377908     0.03543647     0.21260524
H     -1.27234848    -0.72909883     0.04200319
H     -2.06108371     0.08389614     1.04658565
O     -0.05561840    -1.95189307    -0.18678115
H      0.69545812    -1.27662489    -0.06450402
H     -0.20035335    -2.06234093    -1.16000937
12
water clusters train frame=604
O      2.01805632    -0.00505987     0.07545838
H      1.26584041     0.61681382     0.00815416
H      1.99925700    -0.03086382     1.07276175
O     -0.02300616     1.89707216    -0.22551568
H     -0.55606789     1.26949830    -0.15647976
H      0.18837875     1.99514843    -1.16795842
O     -1.81220115     0.04050149     0.02407132
H     -1.10365122    -0.68033288     0.23377367
H     -2.12432553     0.07016105     1.05224957
O     -0.09103691    -2.13189651    -0.09735161
H      0.72682314    -1.19159256    -0.14462199
H     -0.29359439    -1.97915381    -1.13846787
12
water clusters train frame=605
O      1.95226457    -0.04540093     0.12142022
H      1.26670278     0.67897061     0.11519004
H      2.01909953    -0.13504734     1.02842717
O      0.00961423     1.97422655    -0.16685875
H     -0.69394477     1.25207601    -0.10878089
H      0.19483009     2.09423772    -1.03033446
O     -2.00700709    -0.10312036     0.09523291
H     -1.24770223    -0.68333580     0.15243819
H     -2.14824140     0.15182868     1.11579615
O     -0.02127811    -1.94305258    -0.15536263
H      0.75865574    -1.25742669    -0.11264452
H     -0.11009752    -2.09954108    -1.14223733
12
water clusters train frame=606
O      2.01389720     0.00306026     0.09598524
H      1.18565449     0.78968013     0.10320023
H      2.07816438    -0.19187503     1.14092996
O      0.03376570     1.96629994    -0.09992767
H     -0.62149368     1.26828179    -0.08687353
H      0.17951498     2.11399813    -1.08947622
O     -1.95884571     0.04408502     0.18070788
H     -1.26149649    -0.63319265     0.05990701
H     -2.10586286     0.04186641     1.12803314
O     -0.06301525    -1.97970867    -0.21636043
H      0.66427506    -1.19742154    -0.17805495
H     -0.25662780    -2.12402085    -1.08424041
12
water clusters train frame=607
O      1.92222460    -0.09168696     0.27690520
H      1.29953326     0.52283906     0.00344042
H      1.94170963    -0.19270997     1.12644986
O     -0.04386941     1.94391822    -0.23538274
H     -0.62739542     1.13869518    -0.01793419
H      0.24670814     2.10300080    -1.09481198
O     -1.93830864     0.11575314     0.00805533
H     -1.19250219    -0.56747732     0.01887774
H     -2.07883239     0.12645048     1.03791375
O     -0.05195500    -1.97059840    -0.18626882
H      0.68801897    -1.16314562     0.06298353
H     -0.08436193    -2.05265185    -1.14181597
12
water clusters train frame=608
O      1.89308614     0.01426427     0.12054208
H      1.23106254     0.74934017     0.09247926
H      2.06360867    -0.16628519     1.11127929
O      0.03923039     1.98066731    -0.12427680
H     -0.70543231     1.30758757    -0.13814757
H      0.14168930     2.11614193    -1.07822405
O     -1.88522976     0.02002459     0.14133605
H     -1.29536479    -0.71928992     0.06382051
H     -2.11601399     0.14844393     1.12951512
O     -0.08655290    -1.94298283    -0.13488705
H      0.67426028    -1.35777420    -0.11677590
H     -0.11351006    -2.11063230    -1.09261767
12
water clusters train frame=609
O      1.90563771     0.02246760     0.15018828
H      1.30161253     0.67740646     0.07498649
H      1.98452721    -0.10150522     1.17623816
O     -0.11348945     1.90923581    -0.21577592
H     -0.73562504     1.31111120    -0.16276686
H      0.07964713     2.09619380    -1.04504927
O     -2.02793000     0.03556620     0.16992118
H     -1.28232586    -0.68325956     0.06837182
H     -2.05504777     0.11474798     1.12042230
O     -0.10647834    -1.94139191    -0.03885807
H      0.65416465    -1.29697675    -0.09872214
H     -0.24064922    -2.06079784    -1.11842702
12
water clusters train frame=610
O      2.01217014    -0.05184832     0.11683034
H      1.05992370     0.57032581     0.01161444
H      2.14560566    -0.14050276     1.13379274
O     -0.08369491     1.99740026    -0.34431574
H     -0.68045930     1.29415002    -0.20425414
H      0.17474578     2.11735945    -1.04309673
O     -1.91440214     0.01721323     0.11699283
H     -1.29067527    -0.60555653     0.07357263
H     -2.02855799     0.21360880     1.15729917
O      0.00034281    -1.95925551    -0.23882883
H      0.63395433    -1.26769441     0.02254291
H     -0.08085710    -2.14836278    -1.18056671
12
water clusters train frame=611
O      1.97123840     0.05915344     0.18105563
H      1.29199584     0.64824282     0.07940865
H      2.08122035    -0.23248480     1.07830099
O     -0.03459274     1.95973856    -0.13879708
H     -0.68297988     1.28017649    -0.14650342
H      0.16685064     2.02975223    -1.11992739
O     -1.97614206    -0.00898345     0.17050196
H     -1.25255535    -0.68756816     0.08973939
H     -2.12081515     0.08211801     1.07650118
O      0.02930849    -1.97157956    -0.11420839
H      0.66875868    -1.29062918    -0.07618849
H     -0.14287245    -2.10845978    -1.05203490
12
water clusters train frame=612
O      1.98194685    -0.09636197     0.20753815
H      1.24919546     0.60188725     0.15813041
H      2.14457041    -0.19558135     1.11735736
O      0.00612401     2.01160556    -0.16729425
H     -0.71485207     1.22912837    -0.05491043
H      0.13498541     2.10901988    -0.99933342
O     -1.96601653    -0.11825814     0.02804821
H     -1.23433612    -0.69162265     0.11178703
H     -2.08947476     0.07023587     1.11270652
O     -0.04498100    -1.92255338    -0.09928638
H      0.66545269    -1.34724858    -0.08935403
H     -0.20507440    -2.14951173    -1.17217129
12
water clusters train frame=613
O      2.01673688     0.10661860     0.09916622
H      1.40009390     0.67532218     0.00080246
H      2.07029926    -0.32286937     1.25198209
O     -0.04028779     2.02478237    -0.15364523
H     -0.61552289     1.21548605    -0.22105420
H      0.28318285     2.18738448    -0.95666176
O     -1.89098039    -0.12226777     0.27450122
H     -1.21512345    -0.59823686     0.16283163
H     -2.05261999     0.18310358     0.99798335
O     -0.15716639    -2.07565520    -0.20700454
H      0.68756397    -1.26201030    -0.29997845
H     -0.07915617    -1.91010880    -1.07960507
12
water clusters train frame=614
O      1.88673457    -0.00116845     0.14224866
H      1.26046309     0.61131830     0.11420017
H      2.06780590    -0.10033856     1.07472444
O      0.00955629     2.01219777    -0.17681064
H     -0.72257611     1.28805239    -0.10492644
H      0.16157159     2.03148085    -1.11216561
O     -1.94690194     0.01845353     0.12241910
H     -1.24550002    -0.69458931     0.08970519
H     -2.08742339     0.22438253     1.06863068
O     -0.04201677    -1.98303956    -0.16666520
H      0.71160541    -1.18569823    -0.08570448
H     -0.07293892    -2.03220154    -1.09489486
12
water clusters train frame=615
O      2.02791660    -0.05259267     0.15659167
H      1.20260705     0.73151298     0.11671534
H      1.98454730     0.00088109     1.10375996
O      0.10249219     1.93679871    -0.03501789
H     -0.63889712     1.32191768     0.00013208
H      0.22286080     2.19768844    -1.05410860
O     -2.01683922     0.14435251     0.20393958
H     -1.12960711    -0.62800095     0.08016599
H     -2.12083963     0.09892773     1.10994330
O      0.00706844    -1.90364964    -0.11136947
H      0.67439126    -1.25426905    -0.12437477
H     -0.16354849    -2.06564218    -1.00577345
12
water clusters train frame=616
O      1.89808461    -0.09867263     0.18891275
H      1.21220911     0.63478647     0.20900739
H      2.19737269    -0.06750633     1.09381992
O      0.04258466     1.91689188    -0.14556872
H     -0.74141630     1.22431924    -0.08399301
H      0.16042806     2.24693331    -1.01198737
O     -2.02676246    -0.07674214     0.26033083
H     -1.31245158    -0.75892009     0.06561647
H     -2.15719176     0.11597962     1.25533040
O     -0.10381391    -1.82891618    -0.02969548
H      0.69211653    -1.39710865    -0.13637665
H     -0.17050281    -2.02876371    -1.03061200
12
water clusters train frame=617
O      1.88220243     0.06455208     0.14479021
H      1.28531279     0.59931258     0.07498013
H      2.15588479    -0.10627798     1.04540616
O      0.04775901     1.89747781    -0.16404671
H     -0.69433304     1.30485369    -0.11669766
H      0.08036890     2.11243794    -1.04873064
O     -1.99861890     0.04974911     0.23867510
H     -1.27493712    -0.70898610     0.14842708
H     -2.08234204     0.09090077     1.09000534
O      0.00891835    -2.02455610    -0.10415361
H      0.65509446    -1.21559712    -0.12256504
H     -0.10956547    -2.04775202    -1.16402712
12
water clusters train frame=618
O      1.90852418    -0.01488112     0.23440177
H      1.32669815     0.69773554     0.07041371
H      2.10912696    -0.16229654     1.00081012
O     -0.05747023     1.94106404    -0.20514675
H     -0.61545685     1.26198684    -0.10737965
H      0.06718416     2.13570804    -1.06724192
O     -1.84741335    -0.02441064     0.17526800
H     -1.26886039    -0.63612222    -0.00520646
H     -2.02988269     0.16304969     1.21770773
O      0.00145101    -1.97969396    -0.12719811
H      0.75984747    -1.29905881    -0.22035424
H     -0.12315366    -2.08035292    -1.11524212
12
water clusters train frame=619
O      2.03431866     0.01262411     0.10330389
H      1.07368299     0.70230708     0.12656108
H      2.13331502    -0.14979627     1.01804851
O      0.04697409     2.07446081    -0.00999268
H     -0.79364205     1.29164619     0.07600562
H      0.18701279     1.98671374    -1.11885584
O     -1.95028392     0.07368598     0.03801435
H     -1.34307022    -0.82588151     0.10413189
H     -2.12423558     0.10195342     1.10087828
O     -0.05214610    -1.90264820    -0.16104376
H      0.66719960    -1.38100846     0.00389598
H     -0.06643444    -2.07907771    -0.89433486
12
water clusters train frame=620
O      1.97426867     0.02841313     0.11578902
H      1.33366592     0.69504451     0.06337601
H      2.07405672    -0.20685214     1.08195417
O     -0.06905401     1.95309487    -0.09720062
H     -0.70741354     1.22997810    -0.11242404
H      0.12779608     2.05960161    -1.06159479
O     -1.95356637    -0.00467348     0.13657382
H     -1.21788222    -0.72749280     0.06066741
H     -2.05549642     0.11768351     0.99295683
O     -0.02685213    -1.92390266    -0.15321130
H      0.62627652    -1.31099702    -0.10744721
H     -0.12932225    -2.07031671    -0.98329919
12
water clusters train frame=621
O      2.03630002    -0.07570929     0.27051685
H      1.29968212     0.62774667     0.10235447
H      2.03146482    -0.23990491     1.13549846
O     -0.08735712     1.93638908    -0.23756789
H     -0.62968163     1.29846075    -0.03937315
H      0.08233617     1.94549533    -1.15625758
O     -1.86736926    -0.01398771     0.16783098
H     -1.43138662    -0.67643217     0.06620084
H     -2.10694916     0.20880776     1.13324593
O     -0.03435054    -1.87272210    -0.15262134
H      0.71135026    -1.36944833    -0.23897602
H     -0.13912658    -2.08499129    -1.11876385
12
water clusters train frame=622
O      1.76666518    -0.13518854     0.25125335
H      1.46221665     0.76873016     0.10635106
H      2.17773526    -0.26929614     1.06255607
O      0.03494431     1.95781731    -0.06043898
H     -0.65203696     1.17592843    -0.25380328
H      0.11539445     2.15103488    -1.21845562
O     -2.06241296    -0.02770470     0.08094817
H     -1.29090318    -0.82121788     0.14621978
H     -2.09931756     0.02896359     1.01002311
O     -0.03953407    -2.01321511    -0.05641626
H      0.75211801    -1.18627201    -0.10579008
H     -0.26899571    -2.08096299    -1.14001986
12
water clusters train frame=623
O      2.05524348    -0.02635875     0.13585577
H      1.30685392     0.66379509     0.10069736
H      2.04985629    -0.10052661     1.11941611
O     -0.05679901     1.90923664    -0.11485399
H     -0.65457810     1.28521304    -0.00910917
H      0.18058029     2.05523658    -1.03838429
O     -1.96682424    -0.02105789     0.20944828
H     -1.27328309    -0.70931887     0.18355293
H     -2.04791718     0.15734277     1.04536198
O      0.00119982    -1.90350771    -0.13776382
H      0.67890729    -1.27329969    -0.09798874
H     -0.16218192    -2.14042025    -1.11561988
12
water clusters train frame=624
O      1.97269880    -0.05179945     0.09643878
H      1.31940569     0.70280495     0.03330854
H      2.05012631    -0.10094959     1.15459247
O      0.01282622     1.97711299    -0.12313038
H     -0.71233223     1.35247108    -0.25927213
H      0.05224075     2.03574898    -1.04251698
O     -1.92644045     0.02680157     0.24298766
H     -1.32546379    -0.61976582     0.01854049
H     -2.07221833     0.16857552     0.97667651
O      0.01506187    -1.86518900    -0.07526683
H      0.63644622    -1.20714604    -0.12103373
H     -0.09217863    -2.09018375    -1.14399839
12
water clusters train frame=625
O      2.02724315     0.02065212     0.20400603
H      1.37464960     0.55352803     0.15109710
H      1.97643954    -0.00091088     1.22476407
O     -0.07694029     1.92437915    -0.19323506
H     -0.66043124     1.12892231    -0.17119533
H      0.19952546     2.04246601    -1.14168649
O     -1.95507505     0.00704698     0.08258947
H     -1.38389970    -0.74361242     0.08321127
H     -2.07983992     0.10266888     1.03141227
O     -0.03360499    -1.89731070    -0.15561675
H      0.76489213    -1.35819945    -0.04011033
H     -0.33414600    -2.03343692    -1.11115156
12
water clusters train frame=626
O      1.99456440     0.04749406     0.14213784
H      1.20938613     0.61230795     0.10276043
H      2.05423004    -0.10132462     1.06394284
O      0.02479982     1.97172380    -0.11724234
H     -0.62939770     1.33170979    -0.12072681
H      0.14465719     2.07025703    -1.10508567
O     -1.90210121    -0.00204991     0.16487791
H     -1.30999508    -0.66779277     0.08779524
H     -2.12075383     0.12887077     1.07050433
O      0.07003742    -1.95393654    -0.14941682
H      0.65911547    -1.36258374    -0.10849039
H     -0.16287610    -2.06989052    -1.14482388
12
water clusters train frame=627
O      2.03104463    -0.05498783     0.14046711
H      1.20803812     0.62796589     0.13227802
H      1.99859517    -0.18686387     1.03093836
O      0.12851688     1.93883658    -0.16129821
H     -0.60424635     1.29196996    -0.07351070
H      0.21654542     2.14934952    -1.04873004
O     -1.92619401    -0.02756079     0.15452395
H     -1.26980454    -0.75234027     0.07546893
H     -2.18072535     0.08207849     1.12866271
O     -0.09250831    -1.99843775    -0.19714973
H      0.71770919    -1.40021115    -0.03978540
H     -0.14944873    -2.05180078    -1.06122859
12
water clusters train frame=628
O      1.93352069    -0.10607668     0.02825032
H      1.16079039     0.75852534     0.07711881
H      1.95435200    -0.05049317     1.11872978
O      0.07277445     1.91671241    -0.17509828
H     -0.58510709     1.30708064    -0.06684697
H      0.09355331     2.08741962    -1.06726467
O     -1.88154633    -0.04341256     0.04813561
H     -1.38330919    -0.81932141     0.10607920
H     -2.15272748     0.11866477     1.07586458
O     -0.08849918    -1.84190844    -0.14419668
H      0.64473025    -1.26687005    -0.02762141
H     -0.21291230    -2.02886820    -1.14331053
12
water clusters train frame=629
O      1.91085445     0.05061216     0.14794487
H      1.32824251     0.69149036     0.08029780
H      2.11914124    -0.12593321     1.11132391
O      0.03166794     1.99472949    -0.11152627
H     -0.65475621     1.24955006    -0.14729568
H      0.12400131     2.04816568    -1.08929953
O     -1.90664460    -0.03733778     0.19533606
H     -1.23917470    -0.76374724     0.14936263
H     -2.00838767     0.14653586     1.08401327
O      0.02126453    -1.94177048    -0.20766853
H      0.70104027    -1.34850362    -0.04041144
H     -0.16212163    -2.14966223    -1.13557095
12
water clusters train frame=630
O      2.02252016     0.00216297     0.14955775
H      1.31758688     0.74178254     0.14115214
H      2.05637494    -0.12917655     1.01944037
O      0.06216295     1.99379690    -0.23912247
H     -0.71232046     1.23070405    -0.11452437
H      0.17953234     2.20769989    -1.08435307
O     -1.90680436    -0.07990024     0.07093000
H     -1.29494850    -0.70236929     0.11380674
H     -2.04476959     0.07649402     1.03592466
O      0.14134090    -1.97405652    -0.08155872
H      0.71268444    -1.23125640     0.00817325
H     -0.22797647    -2.08412288    -1.15772446
12
water clusters train frame=631
O      1.86082469    -0.04666485     0.26847667
H      1.24471750     0.65898189     0.09978605
H      2.10400897    -0.03755469     0.97990954
O     -0.05432347     2.00610390    -0.17873099
H     -0.70033737     1.26531011     0.00182788
H      0.05845032     2.07623309    -1.04116458
O     -2.06019437     0.04825289     0.09818806
H     -1.33867337    -0.76444589     0.11258560
H     -2.03931342     0.17463689     1.10579411
O     -0.07282726    -1.97344564    -0.20435264
H      0.61210378    -1.18036751    -0.07919185
H     -0.15313418    -1.98913385    -1.07324610
12
water clusters train frame=632
O      1.95943738     0.04151294     0.17853511
H      1.27781792     0.63420400     0.12482332
H      2.10627480    -0.13873202     1.09807867
O     -0.00326138     1.94415859    -0.14991843
H     -0.70156825     1.25503942    -0.11243620
H      0.15127220     2.16114688    -1.06738399
O     -1.95581288    -0.05452661     0.16313033
H     -1.22617457    -0.63277336     0.05443605
H     -2.02590089     0.14052410     1.07273003
O     -0.01227220    -1.93484012    -0.15987927
H      0.68324117    -1.32621229    -0.06523702
H     -0.18705747    -2.15234230    -1.12697644
12
water clusters train frame=633
O      1.95153637    -0.09421858     0.09620174
H      1.25981863     0.71819612     0.05065396
H      2.06560551    -0.11067817     1.12718522
O     -0.10074440     1.87567762    -0.13251708
H     -0.63526301     1.07887313    -0.11659422
H      0.16086787     2.05278962    -1.05240936
O     -1.89715734     0.11689403     0.07964133
H     -1.27957047    -0.57080991     0.09993392
H     -2.03142079     0.21605576     1.14260920
O      0.03137657    -1.94588081    -0.19505438
H      0.80319421    -1.19523439    -0.13070889
H     -0.14419507    -2.03906027    -1.11762684
12
water clusters train frame=634
O      1.99773548    -0.24169083     0.21935035
H      1.25212597     0.65449235     0.29680347
H      2.11104160    -0.10623896     1.13138906
O      0.03267896     1.86301888    -0.13558587
H     -0.72606285     1.33046240     0.01760131
H      0.15416689     2.23614170    -1.22934471
O     -1.93631005     0.07481416    -0.05183986
H     -1.28182597    -0.59401809     0.00115397
H     -2.19146145     0.08056125     1.11445146
O     -0.02755024    -2.00523366    -0.09084583
H      0.80537589    -1.25743728    -0.13531779
H     -0.10688329    -2.03756381    -1.09282801
12
water clusters train frame=635
O      1.98975129    -0.00311574     0.14017159
H      1.23646038     0.74231127     0.11266245
H      2.09816264    -0.15883897     1.08781079
O     -0.00742650     1.93114286    -0.16308632
H     -0.66599336     1.34317272    -0.10120342
H      0.08606372     2.11039656    -1.14537320
O     -1.99320995     0.01111530     0.17441962
H     -1.22653974    -0.59602072     0.16471243
H     -2.12898020     0.18089175     1.08785573
O      0.00759384    -1.98022805    -0.17235887
H      0.71105152    -1.17802383    -0.06114292
H     -0.12180137    -2.08535469    -1.11030571
12
water clusters train frame=636
O      1.96530457    -0.00881791     0.12846083
H      1.18392886     0.77489791     0.07049110
H      2.02818102    -0.08226952     1.11920144
O      0.07040425     1.93905754    -0.14051526
H     -0.66097108     1.36316510    -0.06633481
H      0.10152827     2.14175932    -1.11096637
O     -2.03175422    -0.02826550     0.24580383
H     -1.35027297    -0.72289492     0.10791248
H     -2.13288736     0.14181234     1.09534597
O     -0.02278741    -1.86983189    -0.15351568
H      0.65315045    -1.22608757    -0.03621170
H     -0.07005141    -2.03789000    -1.08785953
12
water clusters train frame=637
O      1.99866015    -0.01638247    -0.00474584
H      1.39179989     0.65736971     0.06384375
H      2.03101017    -0.06105695     1.13201482
O      0.03555704     1.97035797    -0.11572074
H     -0.66151703     1.15202633    -0.18379980
H     -0.04268293     2.17483275    -1.00458064
O     -1.83279926     0.07055466     0.15872489
H     -1.14827015    -0.55801278     0.21178046
H     -2.22521029     0.03024612     1.07436190
O      0.03285839    -2.00722242    -0.25549167
H      0.68241496    -1.30251770    -0.05359250
H     -0.15808760    -2.01239952    -1.05440082
12
water clusters train frame=638
O      1.89793228     0.01643458     0.15987279
H      1.29996690     0.68323728     0.09896963
H      2.05392708    -0.15678886     1.09031824
O     -0.00442807     1.93143003    -0.16546613
H     -0.69494918     1.28966425    -0.09407986
H      0.15254448     2.08059528    -1.16640343
O     -2.02553277    -0.02771474     0.15813698
H     -1.29451490    -0.67392540     0.10606754
H     -2.03771345     0.12993773     1.01709177
O      0.03199739    -2.01814704    -0.19330590
H      0.70796119    -1.32939569    -0.10908524
H     -0.18375956    -2.05274993    -1.10860180
12
water clusters train frame=639
O      1.86687130    -0.09475009     0.01250671
H      1.27916167     0.71263520     0.15896697
H      2.10688377    -0.13050477     1.07030831
O      0.00923747     2.03943775    -0.23046716
H     -0.65553336     1.23922125    -0.17400183
H      0.18803716     2.10645345    -1.12588654
O     -1.87053428     0.01457724     0.09635652
H     -1.32780400    -0.73698003     0.08514866
H     -2.08143236     0.04318919     1.21822641
O      0.06586400    -1.91752644    -0.07123127
H      0.70876428    -1.21808883    -0.08586155
H     -0.11065215    -2.09689925    -1.15812012
12
water clusters train frame=640
O      2.00134481     0.00364390     0.07376833
H      1.12310329     0.62183520     0.16895723
H      2.07336934    -0.20275925     1.01285591
O      0.00592996     1.82295964    -0.19821197
H     -0.72911189     1.21098806    -0.08820335
H      0.16407830     2.21040568    -1.07920694
O     -1.85621925     0.00553448     0.31732461
H     -1.23281211    -0.61818209     0.09602526
H     -1.97718929     0.09189879     1.18158834
O      0.17031914    -1.78425010    -0.13190631
H      0.66097534    -1.19534216    -0.15973218
H     -0.05602242    -2.06850361    -1.00500242
12
water clusters train frame=641
O      1.98430428    -0.01348204     0.21355693
H      1.25852658     0.67449204     0.09930811
H      2.04511945    -0.16783871     1.05926926
O     -0.00998529     1.92402168    -0.15872687
H     -0.73709164     1.32240709    -0.14220824
H      0.16053630     2.10890951    -1.12844763
O     -1.94744465     0.04855457     0.14774504
H     -1.28505572    -0.64266824     0.12704978
H     -2.08617780     0.12853970     1.13234411
O      0.01064748    -1.96030821    -0.13627423
H      0.64365724    -1.23483175    -0.10199011
H     -0.18673647    -2.09776795    -1.14656860
12
water clusters train frame=642
O      1.98151254     0.05177043     0.17828621
H      1.27116695     0.68671107     0.18291662
H      2.01711756    -0.08545544     1.10864331
O      0.03576818     1.98484759    -0.14117576
H     -0.64961657     1.28259348    -0.13436976
H      0.18138497     2.17360037    -1.24200381
O     -2.08971523    -0.05836731     0.20312930
H     -1.21887791    -0.52371746     0.05836754
H     -2.05006053     0.17578068     1.10243530
O      0.06910867    -1.99252681    -0.16954745
H      0.68579647    -1.24248015    -0.00722525
H     -0.17466304    -2.11194671    -1.03579299
12
water clusters train frame=643
O      2.02844655     0.02077298    -0.02735164
H      1.08277341     0.54217880     0.09666410
H      2.02848527    -0.28457201     1.03534128
O      0.07680635     1.94094758    -0.28561966
H     -0.61467601     1.17659351    -0.09835422
H      0.07276565     2.11030923    -1.03277366
O     -1.80039176    -0.10133761     0.12414332
H     -1.22890174    -0.74244148     0.05956034
H     -2.02786029     0.09301749     1.13394649
O     -0.01123380    -2.05846732    -0.08726769
H      0.77390940    -1.21897218    -0.10670658
H     -0.02934502    -2.14079279    -1.06744430
12
water clusters train frame=644
O      1.92257210     0.01570406     0.20644862
H      1.30050897     0.66524627     0.09149947
H      2.07350001    -0.22002999     1.08263123
O      0.03197688     1.95518283    -0.15232029
H     -0.65841090     1.33378540    -0.08491547
H      0.15187922     2.10820349    -1.12009299
O     -1.89881203    -0.03407839     0.15255174
H     -1.30993299    -0.66634319     0.09529340
H     -2.01989205     0.12875728     1.11957285
O     -0.06841961    -1.93852894    -0.13748303
H      0.60804505    -1.25015586    -0.11018420
H     -0.20502114    -2.06948025    -1.08447501
12
water clusters train frame=645
O      1.98180262     0.04601471     0.12729674
H      1.16680586     0.65354453     0.17229554
H      2.09166460    -0.12649077     1.06995335
O     -0.04246231     1.91331134    -0.13913638
H     -0.58198116     1.26914441    -0.12452557
H      0.08113764     2.16928700    -0.98836271
O     -2.03554612    -0.04364943     0.14509030
H     -1.23225578    -0.60022879     0.15860011
H     -2.04951736     0.21139268     1.00422337
O      0.02608723    -1.99239837    -0.08869919
H      0.72035284    -1.28255633    -0.08138666
H     -0.23388328    -2.01060317    -1.04682282
12
water clusters train frame=646
O      1.92786168    -0.01611740     0.25071133
H      1.24928226     0.70506435     0.09628362
H      2.01134626    -0.07609960     1.04306899
O     -0.11103945     1.91267511    -0.01757419
H     -0.73516904     1.29829562    -0.06414400
H      0.24580012     2.15457736    -1.02097369
O     -1.83841212    -0.05703871     0.17943681
H     -1.25642372    -0.80791296     0.11419478
H     -2.05379250     0.22989456     1.04820067
O      0.02611364    -1.95890715    -0.09365035
H      0.79700292    -1.28948897    -0.11315301
H     -0.14864826    -2.09541035    -1.10098528
12
water clusters train frame=647
O      1.93828934    -0.06048126     0.10017322
H      1.29908462     0.59456928     0.14664776
H      2.03814475    -0.17129246     1.08637905
O      0.02969197     1.90620663    -0.16303994
H     -0.70303155     1.20638213    -0.04216665
H      0.13036047     2.04028802    -1.03765322
O     -1.90398969     0.02651849     0.18176696
H     -1.27876963    -0.69402285     0.16433827
H     -2.11322372     0.14696005     1.04360570
O      0.02614865    -1.93966926    -0.13205993
H      0.77420099    -1.33490028    -0.06362294
H     -0.17248192    -2.09988442    -1.05921421
12
water clusters train frame=648
O      1.97854363     0.03400186     0.15846776
H      1.27434690     0.78579695     0.17977272
H      2.01929126    -0.12821983     1.17303533
O      0.10787709     1.99058700    -0.04185329
H     -0.70427871     1.25055108    -0.08265546
H      0.23281105     2.20482255    -1.06497634
O     -1.94199802    -0.05853811     0.13974133
H     -1.22122162    -0.70269193     0.16192540
H     -2.12092051     0.15690044     1.11324840
O      0.04409470    -1.97326773    -0.14193899
H      0.70628965    -1.30729062    -0.05141049
H     -0.23290289    -2.01751824    -1.10480773
12
water clusters train frame=649
O      1.90526640    -0.04953412     0.20446363
H      1.40574308     0.70877317     0.13289312
H      2.02912094    -0.09711794     1.04196252
O      0.05040962     2.06496726    -0.19049332
H     -0.80230619     1.32783334    -0.17496785
H      0.16790987     2.19737025    -1.20082264
O     -1.90970130     0.10219093     0.20112968
H     -1.41073457    -0.63262604     0.14431734
H     -2.00307717     0.01182638     1.09259140
O      0.10531867    -1.89455753    -0.13136084
H      0.68560797    -1.25280967    -0.07662924
H     -0.36667228    -2.03276708    -1.15979848
12
water clusters train frame=650
O      1.95297843    -0.00156856     0.09929000
H      1.28761793     0.67239042     0.12376714
H      2.11038638    -0.18095167     1.06754078
O     -0.02891815     1.97785864    -0.19690376
H     -0.62830108     1.29212331    -0.06367001
H      0.16283897     2.05695777    -1.10047534
O     -1.99489936    -0.01890987     0.14322377
H     -1.28071676    -0.69791654     0.16373844
H     -2.05118008     0.07615182     1.08782313
O     -0.01751116    -1.94896618    -0.14712479
H      0.71256020    -1.32046849    -0.09517334
H     -0.11015236    -2.09682236    -1.08905635
12
water clusters train frame=651
O      1.95299389     0.08015648     0.17225259
H      1.39004992     0.63934804     0.11400747
H      2.10979812    -0.11237375     1.09008531
O      0.05702368     1.92967755    -0.13965570
H     -0.62155085     1.24270838    -0.08517585
H      0.16852840     2.01416134    -1.12037391
O     -1.93617988    -0.04629852     0.14958554
H     -1.24903123    -0.63292944     0.16621892
H     -2.03852148     0.19605405     1.06895063
O      0.05220973    -2.01019059    -0.20855764
H      0.80016337    -1.28291789    -0.13182867
H     -0.11948166    -2.10220783    -1.11130857
12
water clusters train frame=652
O      1.92042493     0.05760406     0.16635036
H      1.20986385     0.71100584     0.18173096
H      2.07018220    -0.19375478     0.97581251
O      0.10288568     2.01354371    -0.11690760
H     -0.67562696     1.21379357    -0.18604266
H      0.11204756     1.98489240    -1.13043248
O     -1.95973323     0.00881594     0.11049758
H     -1.27889455    -0.73583430     0.15667211
H     -2.23089540    -0.02238711     1.25120443
O     -0.03302928    -1.96289539    -0.10234935
H      0.84250927    -1.25888978    -0.27145648
H     -0.19039439    -2.03516703    -1.18459216
12
water clusters train frame=653
O      1.94338225     0.02352342     0.18627271
H      1.19514485     0.70670025     0.02678909
H      2.05972560    -0.12966518     1.09082206
O     -0.00305087     1.94742122    -0.20975285
H     -0.65605290     1.37301109    -0.10509260
H      0.08007528     2.05220454    -1.11425924
O     -1.94340769    -0.05639040     0.09162415
H     -1.24338769    -0.65305561     0.11950625
H     -2.02586947     0.15051443     1.06560498
O     -0.01763071    -1.89663842    -0.19211745
H      0.69123501    -1.27135575    -0.05430023
H     -0.14052289    -2.12552932    -1.12802683
12
water clusters train frame=654
O      2.00137569     0.03701359     0.21287519
H      1.22753651     0.74674738     0.14986088
H      2.16257096    -0.12816607     1.04558369
O      0.00193207     1.97302429    -0.12493923
H     -0.59903324     1.33651708    -0.02793681
H      0.09500159     2.04941050    -1.14639655
O     -2.02913149     0.01286422     0.22888269
H     -1.38054659    -0.73749688     0.12769110
H     -2.09911555     0.10070141     1.10695701
O     -0.07303702    -2.03975666    -0.09117242
H      0.66978747    -1.32462185    -0.20910716
H     -0.12491025    -2.12725006    -1.10555754
12
water clusters train frame=655
O      2.09567967    -0.12812931     0.17109845
H      1.33949065     0.80503119     0.07756676
H      2.04939202    -0.16465211     1.15205300
O      0.00585862     1.96421327    -0.13218198
H     -0.74265495     1.28436940     0.00371362
H      0.02640354     2.16801675    -1.17095190
O     -1.86583917    -0.08911403     0.22295883
H     -1.37505998    -0.84069386    -0.05060402
H     -2.12742517     0.12527693     0.92894878
O      0.01352791    -1.94258163    -0.21428670
H      0.67153103    -1.28395584    -0.03826122
H     -0.25670882    -2.01535413    -1.06833197
12
water clusters train frame=656
O      1.86708775    -0.03035388     0.09120756
H      1.20811941     0.68774609     0.10453672
H      2.10830130    -0.11904934     1.04430213
O     -0.02592139     1.93171182    -0.14104078
H     -0.66891725     1.31312993    -0.05338379
H      0.10282436     2.10665906    -1.05890581
O     -1.96123781    -0.04204547     0.16864504
H     -1.29430054    -0.65132359     0.10002801
H     -2.14187890     0.08915489     1.07868234
O     -0.03310692    -1.91007031    -0.12062745
H      0.65768078    -1.29552243    -0.11807494
H     -0.18688288    -2.10328071    -1.14017121
12
water clusters train frame=657
O      2.02849139     0.05489289    -0.03824658
H      1.29050773     0.73551255     0.05444168
H      2.16861081     0.02883366     1.04929649
O      0.02253693     2.01525982    -0.02426793
H     -0.69787668     1.28245092    -0.10294139
H      0.07761451     2.17286380    -1.07008872
O     -1.98097529     0.13462992     0.10476417
H     -1.20734441    -0.63402467     0.03059573
H     -2.04172406     0.11793187     1.10021617
O     -0.05305868    -1.95766775    -0.14013562
H      0.61853775    -1.26124057    -0.16336016
H     -0.16782049    -2.01761741    -0.95069914
12
water clusters train frame=658
O      1.94117782    -0.00905117     0.24040962
H      1.23832948     0.75630949     0.14616262
H      2.10440127    -0.03554021     0.99461465
O     -0.10093763     1.85492726    -0.19520474
H     -0.71300534     1.19700780    -0.18096934
H      0.08670138     2.03466996    -1.11430703
O     -1.95314001    -0.07176462     0.10120256
H     -1.19035816    -0.67920525     0.13658492
H     -2.08204515    -0.01891656     0.88878612
O     -0.09073385    -1.94552486    -0.16988810
H      0.79609108    -1.26265965    -0.05871016
H     -0.08040256    -2.00238537    -1.04435879
12
water clusters train frame=659
O      1.91387116    -0.01578969     0.18826392
H      1.28246373     0.67450383     0.10620824
H      2.11113232    -0.15442773     1.04711822
O     -0.00537101     2.06026580    -0.17467477
H     -0.66596969     1.28709089    -0.07574359
H      0.09711345     2.04826068    -1.08443997
O     -2.00631034     0.03306852     0.16406746
H     -1.24670861    -0.68708550     0.06796977
H     -2.14558578     0.15121950     1.07612300
O      0.05905510    -1.96481076    -0.14056529
H      0.59253909    -1.25206067    -0.13908602
H     -0.17654841    -2.06983532    -1.07707134
12
water clusters train frame=660
O      1.94643630     0.04255009     0.23210099
H      1.21322993     0.57520839     0.12516290
H      2.05243369    -0.10842229     1.21084203
O      0.01844914     1.91755957    -0.17887587
H     -0.68098346     1.17055494    -0.15123363
H      0.16507689     2.19197168    -1.12388709
O     -2.07934359    -0.09982901     0.17613932
H     -1.25854305    -0.59703548     0.19219793
H     -2.06185311     0.11595272     1.11522276
O      0.07452647    -1.93154256    -0.11271852
H      0.69691237    -1.20161252    -0.16631081
H     -0.19339026    -2.03643831    -1.05348895
12
water clusters train frame=661
O      2.03449573    -0.01779302     0.25445615
H      1.35987704     0.71824661     0.25854399
H      2.11589977    -0.11892991     1.10033606
O      0.04805230     2.04342517    -0.05600928
H     -0.59144535     1.23288580     0.00247863
H      0.20743737     2.07790595    -1.21498274
O     -1.92971817     0.01172603     0.02883630
H     -1.23477061    -0.59544210     0.05429566
H     -2.07644787     0.17718540     1.01178902
O      0.10662470    -1.86183960    -0.01548249
H      0.70328799    -1.33277374    -0.17438464
H     -0.07803147    -2.17137379    -1.05895790
12
water clusters train frame=662
O      1.97003209    -0.02019967     0.08682685
H      1.31309923     0.72751271     0.11702920
H      2.04948983    -0.12606025     1.12457907
O      0.05223162     1.90871703    -0.17628764
H     -0.58761373     1.22243153    -0.15277171
H      0.17137868     2.04209798    -1.17457817
O     -1.94823829    -0.07167961     0.13980823
H     -1.23881205    -0.69884713     0.10352926
H     -2.08283471     0.14474272     1.00177929
O     -0.02598353    -1.94853324    -0.14563455
H      0.70096524    -1.28972402    -0.10398275
H     -0.13478657    -2.14335717    -1.09344139
12
water clusters train frame=663
O      1.90409896     0.01671813     0.09736844
H      1.31448363     0.84087542     0.07099802
H      2.14002622    -0.09401894     1.08343739
O     -0.04411426     1.87241648    -0.18997209
H     -0.60537853     1.21049522    -0.08647033
H      0.24779957     2.04840023    -0.93494795
O     -1.91444224     0.05221633     0.10500612
H     -1.29735156    -0.69499163     0.07434032
H     -1.98347867     0.15052472     1.08000117
O     -0.02307535    -2.05480707    -0.23373135
H      0.79958593    -1.20237632    -0.14982169
H     -0.16667193    -2.09978865    -1.01787988
12
water clusters train frame=664
O      1.76781204     0.05889308     0.22833002
H      1.27172764     0.70014516     0.15918669
H      2.23290709    -0.26021742     1.09147064
O      0.09531869     1.97128990    -0.17483178
H     -0.67032720     1.10900665    -0.01025512
H      0.19826976     1.95608002    -1.15829340
O     -1.95679526    -0.04914402     0.07880193
H     -1.17083903    -0.57893334    -0.00611640
H     -2.13321131     0.17171558     1.10872809
O     -0.08589861    -2.14792584     0.01617879
H      0.66975533    -1.17991100    -0.15638291
H     -0.19264106    -2.09454861    -1.13074010
12
water clusters train frame=665
O      1.97280477     0.01651545     0.17141460
H      1.27552036     0.68368304     0.10555835
H      2.08809429    -0.13558598     1.10726978
O      0.03371752     2.00401796    -0.13318535
H     -0.69083588     1.27944546    -0.11357951
H      0.05745382     2.12178291    -1.06611855
O     -1.89062959     0.01955713     0.25073396
H     -1.28138094    -0.69255257     0.04650078
H     -2.07834371     0.16336024     1.14788712
O      0.06734112    -1.88612469    -0.11937801
H      0.68509531    -1.34715753    -0.10397150
H     -0.20508330    -2.07269248    -1.10117572
12
water clusters train frame=666
O      1.93567623    -0.01915095     0.11307633
H      1.31283459     0.61392375     0.15553863
H      2.09893291    -0.14470556     1.06707535
O      0.07225188     1.93571560    -0.20611813
H     -0.69196749     1.26066224    -0.07284649
H      0.09210625     2.17490791    -1.07442078
O     -1.90813924    -0.01073184     0.07485834
H     -1.24631267    -0.81528334     0.01576827
H     -2.10255383     0.12201431     1.01226510
O      0.10107327    -1.90546224    -0.14043259
H      0.69717828    -1.28096690    -0.08551548
H      0.02473930    -2.11070097    -1.18847342
12
water clusters train frame=667
O      1.93390317    -0.03507293     0.09015389
H      1.04367814     0.65032510     0.17586965
H      2.01103984    -0.17336306     0.97667773
O      0.03984061     1.97771061    -0.32391409
H     -0.69350794     1.31617212    -0.07798939
H     -0.01791109     2.16166975    -1.12000065
O     -1.88881171     0.04857751     0.33948449
H     -1.37994517    -0.62072886    -0.02042202
H     -2.11338357     0.17622347     1.10200083
O     -0.02065947    -2.00567166    -0.16029011
H      0.63459930    -1.31829053    -0.15305370
H     -0.07457750    -2.03142369    -1.14386687
12
water clusters train frame=668
O      1.91712896     0.00892665     0.16411446
H      1.32340589     0.68480855     0.20045530
H      2.11364113    -0.10099411     1.08700001
O     -0.00986013     1.95764020    -0.06880936
H     -0.71410679     1.20845804    -0.12860214
H      0.11094784     2.00675914    -1.16138435
O     -1.94103824    -0.01510638     0.17919274
H     -1.19799563    -0.74622037     0.08916214
H     -1.98815532     0.05502076     1.07643447
O     -0.01698290    -1.91342226    -0.13060041
H      0.64832889    -1.27136457    -0.10242752
H     -0.14371153    -2.05550172    -1.07003958
12
water clusters train frame=669
O      1.93334171    -0.03237259     0.19078709
H      1.40361538     0.62951188     0.05551599
H      2.06983997    -0.08002832     1.16108448
O     -0.02979163     1.95286534    -0.17391275
H     -0.79583821     1.24392480    -0.10570426
H      0.17998643     2.05809208    -1.01969012
O     -1.94932174     0.01857562     0.11462931
H     -1.27920786    -0.68582178    -0.06716939
H     -2.11736408     0.16722189     1.11646247
O      0.05619824    -1.94177865    -0.10988055
H      0.74153938    -1.19870915    -0.11751007
H     -0.17214592    -2.16541490    -0.99488610
12
water clusters train frame=670
O      1.94684956     0.04066741     0.06622589
H      1.27172813     0.68752203     0.00395441
H      2.05866835    -0.15714921     1.16198533
O     -0.13076854     1.96706056    -0.23264972
H     -0.67194342     1.33195440     0.00798094
H      0.13141474     2.15881341    -1.18204342
O     -2.06166817    -0.00406986    -0.11113178
H     -1.43830617    -0.67804118     0.16358501
H     -2.12177772     0.16585296     1.08093905
O      0.08198406    -2.00596034    -0.20886458
H      0.87364168    -1.22440795    -0.06595463
H     -0.15248930    -1.99594297    -1.08068038
12
water clusters train frame=671
O      1.98299689     0.01755992     0.15629142
H      1.28646036     0.67444633     0.09073840
H      2.08056598    -0.09483901     1.12369343
O      0.02100518     1.96081297    -0.14262174
H     -0.64179010     1.33419009    -0.12090878
H      0.15843007     2.02544464    -1.06837432
O     -1.81933587    -0.06776834     0.15667087
H     -1.24185289    -0.70914588     0.07004243
H     -2.02295473     0.06889289     1.06165755
O     -0.05542780    -1.94160201    -0.15968887
H      0.69869249    -1.33942899    -0.11166217
H     -0.12240935    -2.11984026    -1.10601916
12
water clusters train frame=672
O      1.91934791     0.03196487     0.05884620
H      1.25782200     0.67297919     0.04110686
H      2.04400430    -0.16177659     1.11535922
O      0.02817315     1.92229402    -0.12622823
H     -0.65663325     1.27282805     0.01143308
H      0.07802684     2.06741441    -1.17470907
O     -1.92382660    -0.00556028     0.11017489
H     -1.24782995    -0.63270545     0.19049773
H     -2.07597697     0.13431117     1.22626545
O     -0.00763239    -1.95836772    -0.10604694
H      0.73641418    -1.16233154     0.01855606
H     -0.17380865    -1.98647820    -1.07777032
12
water clusters train frame=673
O      2.03305364    -0.01474048     0.34018788
H      1.32160394     0.62646409     0.14850837
H      1.99942788    -0.14443280     1.29069685
O      0.02871986     2.00659765    -0.03513843
H     -0.68428655     1.20842480     0.04634516
H      0.07802058     2.01586290    -1.10139717
O     -1.85116039     0.02631425     0.11882751
H     -1.33324687    -0.68462312     0.10609545
H     -2.12089267     0.07341501     0.97396671
O     -0.15052898    -2.06167943    -0.14014248
H      0.63727345    -1.39205326    -0.04859644
H     -0.22868709    -1.98213567    -0.95131509
12
water clusters train frame=674
O      1.89981492     0.02500164     0.13860736
H      1.29053221     0.65621331     0.08293069
H      2.09856202    -0.07002487     1.08379766
O     -0.06039461     1.94152881    -0.17551047
H     -0.71295868     1.27432580    -0.11578302
H      0.14176505     2.12237395    -1.13089906
O     -1.96948553    -0.06865901     0.15739080
H     -1.27083361    -0.66686814    -0.00738943
H     -2.12799475     0.12056777     1.04537909
O      0.02461926    -1.95602145    -0.12947114
H      0.66049216    -1.27051240    -0.12350926
H     -0.11124450    -2.11774797    -1.01687840
12
water clusters train frame=675
O      1.81840936    -0.09477591     0.11216487
H      1.26191513     0.71851299     0.06377932
H      2.08511284    -0.16836302     1.16686076
O      0.00898916     1.91561549    -0.29035167
H     -0.74715461     1.29198240    -0.03938365
H      0.12574177     2.05771991    -1.13572178
O     -2.04341409    -0.01446501     0.13290207
H     -1.33894713    -0.75891039     0.08012348
H     -2.17049998     0.32910405     1.17283657
O      0.03092989    -2.00016308    -0.16485136
H      0.65750738    -1.14347146    -0.03784603
H     -0.18532820    -2.05861789    -1.08432279
12
water clusters train frame=676
O      1.81587462    -0.07784934     0.23882723
H      1.27045554     0.91599667    -0.10394740
H      2.09946292     0.07332741     1.03080839
O     -0.04271364     1.98082209    -0.19393249
H     -0.56869789     1.15662652    -0.02317433
H      0.23160103     2.01730817    -0.97221237
O     -1.94262769    -0.01788326     0.19173268
H     -1.23941098    -0.71178658     0.02569557
H     -2.08079391     0.08345366     1.14843079
O     -0.01563592    -1.92167234    -0.14903729
H      0.70505215    -1.39175285    -0.10453985
H     -0.08621478    -2.11179163    -1.15273903
12
water clusters train frame=677
O      1.93191817     0.06136481     0.14473880
H      1.31542642     0.66140989     0.03201890
H      2.03339831    -0.10036207     1.07390190
O     -0.00082211     1.93148098    -0.10493150
H     -0.63278145     1.25810951    -0.12834552
H      0.19554352     2.10665534    -1.09349622
O     -1.93565862     0.02698748     0.10222691
H     -1.22237215    -0.65443212     0.04351652
H     -2.09845804     0.19534667     1.07735885
O      0.02684278    -1.94527124    -0.12932958
H      0.72268633    -1.29680694    -0.10234963
H     -0.13448897    -2.07925131    -1.04158359
12
water clusters train frame=678
O      1.98207994     0.00360592     0.13559835
H      1.30602008     0.61179260     0.19388114
H      2.01399084    -0.17841586     1.05942290
O     -0.00628474     1.90466715    -0.15383565
H     -0.73525583     1.36703633    -0.03890814
H      0.12998907     2.08819614    -1.10244125
O     -1.95672843     0.08601835     0.17198545
H     -1.26872686    -0.67791305     0.10220395
H     -1.96909377     0.24399055     1.07973349
O     -0.01434941    -1.82404276    -0.17145685
H      0.62513739    -1.20622333    -0.05127551
H     -0.05902295    -2.12290156    -0.96773714
12
water clusters train frame=679
O      2.06747507    -0.00573056     0.11032784
H      1.20953235     0.77762909     0.14697105
H      2.10289197     0.00639158     1.13269912
O     -0.07322886     2.00324972    -0.17135492
H     -0.80057710     1.27170405    -0.05161418
H      0.18403256     2.09709346    -1.06467043
O     -1.85656048    -0.03021517     0.11520943
H     -1.22696932    -0.62606660     0.12093110
H     -2.06740460     0.15264274     0.97259349
O     -0.15816930    -2.05373226    -0.12886353
H      0.78065911    -1.24861782    -0.11592874
H     -0.15376270    -1.99265475    -1.03184671
12
water clusters train frame=680
O      1.98611459    -0.06592908     0.11884641
H      1.24528234     0.59583850     0.09047776
H      2.14454918    -0.13839077     1.02938975
O      0.04285599     1.97047052    -0.08245206
H     -0.72373632     1.26421680    -0.12022965
H      0.17193780     2.05176258    -1.08361291
O     -1.95836899    -0.02206630     0.15321628
H     -1.29464853    -0.66916349     0.04481009
H     -2.10222987     0.12405140     1.17754616
O     -0.00627469    -1.92553539    -0.19875124
H      0.63038005    -1.29563606    -0.09291481
H     -0.12914031    -2.14062528    -1.10431192
12
water clusters train frame=681
O      1.82573963    -0.01156727     0.09885276
H      1.27971060     0.69564665     0.09997075
H      2.21158562    -0.14557082     1.09250149
O     -0.13378527     1.99571915    -0.10288669
H     -0.67094549     1.32185472    -0.07292257
H      0.06318847     2.12812226    -1.09440375
O     -1.93216244    -0.00301075     0.08602236
H     -1.28123091    -0.55646310     0.04843905
H     -2.17383224     0.17612117     1.01048984
O      0.01924003    -1.94959102    -0.16179510
H      0.65930544    -1.23434964    -0.06572907
H     -0.14639315    -2.10168514    -1.17582488
12
water clusters train frame=682
O      2.02804143     0.04081617     0.16234981
H      1.23068301     0.80759097     0.21642651
H      2.03777904    -0.05470557     1.02428968
O      0.04771003     1.76485834    -0.08672635
H     -0.80991439     1.26009448    -0.14773744
H      0.10732382     2.09314236    -1.08915046
O     -1.99451347    -0.03328774     0.06874057
H     -1.18441421    -0.63540648     0.06409139
H     -2.02951522     0.07615932     1.09792721
O      0.14016485    -2.05858715    -0.25309591
H      0.69213352    -1.09302125    -0.19262061
H     -0.00007353    -2.07123201    -1.16594245
12
water clusters train frame=683
O      1.95250793    -0.03624309     0.20274361
H      1.24022858     0.68462573     0.10246059
H      2.05366879    -0.10657238     1.06501181
O      0.00658701     1.99788747    -0.12927121
H     -0.68442137     1.32778606    -0.09210750
H      0.16716017     2.10986994    -1.05425733
O     -1.92096303     0.06150700     0.11121303
H     -1.32730601    -0.67577525     0.07281303
H     -1.95090725     0.08920711     1.06047213
O      0.08785271    -1.99422515    -0.18223098
H      0.76583230    -1.24334626    -0.18565942
H     -0.14217509    -2.05471243    -1.04638743
12
water clusters train frame=684
O      1.91087757     0.02398761     0.17899616
H      1.36439531     0.69622551     0.09431873
H      2.10321482    -0.13407713     1.05623935
O      0.06400330     1.99409777    -0.19541877
H     -0.71409751     1.26732840    -0.09757752
H      0.18282350     2.11117064    -1.06322518
O     -2.08908543     0.01543516     0.24841056
H     -1.23913755    -0.66967150     0.10795769
H     -1.98452206     0.11955933     1.12663099
O     -0.05734147    -1.86990739    -0.04727965
H      0.68365540    -1.38066787    -0.00541273
H     -0.18299202    -2.00090417    -1.18273297
12
water clusters train frame=685
O      2.01853790    -0.11216283     0.06872883
H      1.20211705     0.64759566     0.19058166
H      2.20969901    -0.19972054     1.12061667
O      0.04789212     1.78821829    -0.21657831
H     -0.56724795     1.30076542    -0.12951176
H      0.02403566     2.05093583    -1.11214395
O     -2.08240729    -0.14021778     0.14663853
H     -1.36081575    -0.63763781     0.03618769
H     -2.08591105     0.24318245     1.04912893
O     -0.08041092    -1.76622097    -0.14773202
H      0.72884622    -1.36846405    -0.11539474
H     -0.19907965    -2.11441331    -1.09440364
12
water clusters train frame=686
O      1.94695201    -0.01519992     0.08624443
H      1.30440241     0.67280695     0.05788728
H      2.05278067    -0.16173569     1.09871167
O     -0.04103950     1.93351298    -0.14289430
H     -0.62542707     1.31086717    -0.14914042
H      0.10150586     2.06700907    -1.10856363
O     -1.93878111    -0.05970272     0.17562580
H     -1.27113379    -0.60840463     0.10181123
H     -2.09336126     0.12575730     1.06410499
O      0.00960823    -1.95786956    -0.20802312
H      0.68273555    -1.22999737    -0.08521944
H     -0.14135401    -1.99599004    -1.07708860
12
water clusters train frame=687
O      2.02226195    -0.15216158     0.14760467
H      1.43054384     0.62735604     0.12286925
H      2.09747041    -0.18095548     1.09704010
O     -0.02980751     2.01793037    -0.14440168
H     -0.68729768     1.30415986    -0.02811134
H      0.06423923     2.07503637    -1.15417868
O     -1.86781158    -0.04038758     0.12118231
H     -1.27386765    -0.69099420     0.01825283
H     -2.12505724     0.15853570     1.05365903
O      0.02651931    -1.87896403    -0.10476632
H      0.63802306    -1.36125859    -0.15344139
H     -0.11112950    -2.11065539    -1.14215627
12
water clusters train frame=688
O      1.88223706     0.10867914     0.15358064
H      1.21166190     0.81201228     0.15969512
H      2.03811412    -0.03077719     1.03656487
O      0.01285224     1.89806561    -0.14659485
H     -0.54364399     1.41630436     0.01343448
H      0.18702105     2.05225877    -1.14754786
O     -2.00169466     0.01374615     0.24036075
H     -1.38978962    -0.73215502     0.09134962
H     -2.12029772     0.29703113     1.17001489
O     -0.05863941    -1.85337057    -0.17697191
H      0.77731251    -1.36966878     0.00392111
H     -0.06301577    -2.04759795    -1.05698649
12
water clusters train frame=689
O      2.05080829     0.05258718     0.12888103
H      1.30962999     0.59708953     0.13698479
H      2.12303814    -0.12833638     1.08557845
O      0.02612988     2.00177383    -0.17328513
H     -0.69422607     1.34251356    -0.08588956
H      0.07409944     2.06090340    -1.16340166
O     -1.93381103    -0.06261003     0.15224422
H     -1.23114012    -0.67553461     0.09569093
H     -2.10186527     0.08065721     1.08753599
O      0.02116966    -1.92236350    -0.14709992
H      0.63020534    -1.29785875    -0.05559694
H     -0.07419916    -2.05863166    -1.11174647
12
water clusters train frame=690
O      2.02711925     0.13279012     0.09076549
H      1.32783957     0.77238989     0.02509083
H      2.01616482    -0.16032272     1.06020942
O      0.05553128     1.96692975    -0.14385439
H     -0.60586403     1.31462674    -0.14514090
H      0.09551303     2.03160638    -1.07586036
O     -1.99543278    -0.01040079     0.05825839
H     -1.30662097    -0.70046947     0.05615636
H     -2.02210914     0.09081853     1.16979231
O      0.00165126    -1.94118470    -0.15300256
H      0.65155465    -1.14691534    -0.04284894
H     -0.10962513    -2.13061513    -1.00461475
12
water clusters train frame=691
O      1.89421167    -0.11638923     0.18055608
H      1.25458798     0.72957859     0.10741977
H      2.05106638    -0.22051703     1.10675347
O      0.11566674     1.87098835     0.07238911
H     -0.66765832     1.33132844    -0.19320255
H      0.13432454     1.98708720    -1.06386865
O     -1.83778174    -0.03925557     0.07120717
H     -1.17056336    -0.75713967     0.10815728
H     -2.05548425     0.16193830     1.18199426
O      0.03519927    -1.99389785    -0.13999667
H      0.60793535    -1.34070217    -0.11682699
H     -0.13861755    -2.20466844    -1.15622830
12
water clusters train frame=692
O      1.93488831     0.01316734     0.18915409
H      1.27933555     0.64032450     0.07401968
H      2.13603530    -0.05282506     1.07772927
O      0.00719372     1.96350508    -0.17335725
H     -0.62893133     1.32821697    -0.06114736
H      0.14096009     2.02358191    -1.08146524
O     -1.94742496    -0.06097032     0.19596749
H     -1.24215935    -0.67029206     0.02112767
H     -2.12019353     0.16487895     1.05808396
O     -0.02716855    -1.95867965    -0.19582866
H      0.71376242    -1.33738449    -0.13816738
H     -0.23026268    -2.04313344    -1.08432751
12
water clusters train frame=693
O      2.04792752    -0.04821727     0.13789892
H      1.25245152     0.63879605    -0.01382493
H      2.03065038    -0.06627292     1.06456288
O      0.14091049     1.96214289    -0.18863814
H     -0.71947667     1.36647911    -0.08678183
H      0.19203937     2.20711361    -1.12270843
O     -1.89549691    -0.09697061     0.13473950
H     -1.19318800    -0.68288730     0.25012101
H     -2.08984655     0.14656812     1.09372546
O     -0.05988126    -1.96207661    -0.15143498
H      0.58615325    -1.25568697    -0.04912899
H     -0.20392860    -2.03269451    -1.13508241
12
water clusters train frame=694
O      1.92091225     0.01623283     0.19260583
H      1.33756606     0.69062279     0.16241035
H      2.19536068    -0.24370602     1.01175143
O      0.09128735     1.83328743    -0.10510032
H     -0.72288520     1.19405884    -0.02490695
H      0.09810921     2.15855471    -0.96502640
O     -1.84353127    -0.08835294     0.27475088
H     -1.21598422    -0.63151654     0.20955574
H     -2.10118484     0.24707127     1.14267794
O     -0.04043075    -2.00726194    -0.12045203
H      0.66601103    -1.22321554    -0.07713551
H     -0.24441270    -2.00084514    -1.04149625
12
water clusters train frame=695
O      1.85904637     0.12364265     0.14141873
H      1.30640800     0.71838090     0.01939062
H      2.07025507    -0.07312736     1.05901898
O      0.02950421     1.97180319    -0.11667542
H     -0.68047067     1.32035329    -0.10489360
H      0.14290126     2.00759244    -1.07307864
O     -1.89420495    -0.01658178     0.19326443
H     -1.30564373    -0.69894977     0.06630660
H     -2.02312143     0.20563364     1.15446782
O      0.00583530    -2.00857994    -0.10545336
H      0.66469216    -1.32053078    -0.08987245
H     -0.06876758    -1.99538669    -1.11746103
12
water clusters train frame=696
O      1.93570121     0.03347530     0.11998084
H      1.34151319     0.73436906     0.05544741
H      2.16749970    -0.09275585     1.10495821
O      0.06210831     1.88612831    -0.21381845
H     -0.51490046     1.25691972    -0.21678133
H      0.03013128     2.10215153    -1.11122272
O     -1.84932705    -0.01485461     0.15413213
H     -1.31676882    -0.60828703     0.07079787
H     -2.08271394     0.10404368     1.12345778
O     -0.00785952    -1.93667892    -0.17652954
H      0.70224083    -1.33370067    -0.15636700
H     -0.27681649    -1.99733375    -1.10720830
12
water clusters train frame=697
O      1.97923165    -0.03441601     0.13114896
H      1.26195652     0.76924062     0.05356460
H      1.99158535    -0.16598950     1.09691687
O      0.01685386     1.87814180    -0.22090973
H     -0.80252128     1.12750016     0.00873073
H      0.13162285     2.09638446    -1.11925572
O     -1.97936167     0.02958198     0.28369247
H     -1.21571921    -0.61199419    -0.04011197
H     -2.16210658     0.18334048     1.01658094
O      0.07783346    -1.92766923    -0.14822784
H      0.78849000    -1.37021334    -0.06701461
H     -0.15412393    -2.13088463    -1.03605594
12
water clusters train frame=698
O      1.98211634     0.00218290     0.19482308
H      1.30102981     0.69789365     0.05017585
H      2.08683224    -0.15756082     1.07925240
O     -0.02996178     1.93484218    -0.12979447
H     -0.71058905     1.20518782    -0.11205804
H      0.15155521     2.07674547    -1.12117695
O     -1.96169313     0.00020310     0.18820239
H     -1.28325589    -0.65198320     0.10698227
H     -2.08420908     0.12771459     1.10862574
O      0.05385284    -1.94661769    -0.16921393
H      0.62441260    -1.26054388    -0.09498738
H     -0.23397876    -2.06899566    -1.03584254
12
water clusters train frame=699
O      1.91925009     0.01724985     0.15064433
H      1.24137993     0.61224205     0.12825392
H      2.04555849    -0.14329522     1.02408623
O     -0.02876389     1.95387937    -0.20989462
H     -0.68571857     1.35568625    -0.06801367
H      0.13715799     2.16123736    -1.12379849
O     -1.89143527     0.11508937     0.16863508
H     -1.22944289    -0.75111640     0.14548060
H     -1.98868623     0.21948034     1.16577016
O     -0.04462858    -1.89258310    -0.07026786
H      0.68543199    -1.33214919    -0.02518943
H     -0.22225241    -2.02623330    -1.21180659
12
water clusters train frame=700
O      1.93152025     0.05904848     0.10044658
H      1.20652368     0.65349915    -0.09641360
H      2.06139052    -0.25611074     1.09548915
O      0.01853836     1.87444025    -0.21067425
H     -0.62326852     1.02946265    -0.16841499
H      0.16137206     2.05281507    -1.03609240
O     -1.89952688     0.09383142     0.15129792
H     -1.20236662    -0.64459542     0.08966076
H     -2.26035571     0.11478749     1.23143800
O     -0.13745596    -1.89933812    -0.25215292
H      0.65936804    -1.20416431    -0.17190850
H     -0.28792678    -1.99878239    -1.09069414
12
water clusters train frame=701
O      1.96841208    -0.02547218     0.14016671
H      1.27904240     0.69814819     0.10284549
H      2.12496981    -0.15398183     1.00304592
O     -0.00411846     1.91221428    -0.10560102
H     -0.64924563     1.28964225    -0.09370183
H      0.15826956     2.07584201    -1.10027061
O     -1.97140726     0.01957639     0.16519203
H     -1.20230323    -0.73713455     0.14070946
H     -2.07937148     0.11769177     1.05240592
O      0.00260628    -1.98505589    -0.14835261
H      0.67198773    -1.28840795    -0.08912625
H     -0.08897494    -2.02792343    -1.11711866
12
water clusters train frame=702
O      1.97084145     0.01301887     0.15429948
H      1.27113500     0.67186869     0.13599824
H      2.02967006     0.07381601     1.09271907
O     -0.03770322     1.94001403    -0.12675532
H     -0.63585616     1.26550434    -0.09725280
H      0.18489956     2.07272359    -1.10958506
O     -1.97765923    -0.10126353     0.15211539
H     -1.26106271    -0.61053294     0.05907552
H     -2.11291073     0.17011615     1.18978549
O     -0.02682522    -1.89437095    -0.19705579
H      0.64525224    -1.40592010    -0.03730705
H     -0.13222117    -2.14013849    -1.04189280
12
water clusters train frame=703
O      1.83220777     0.04092263     0.13959165
H      1.22363586     0.83887334     0.14867737
H      2.22734852    -0.09913945     1.19656259
O     -0.01652489     1.84566484    -0.05142868
H     -0.60505318     1.26691623    -0.10517743
H      0.20449798     2.13674181    -1.10103655
O     -2.00246845     0.02077761     0.17548286
H     -1.33784477    -0.67172339     0.09720878
H     -2.05596493     0.04601074     1.08873547
O     -0.05581542    -1.87445403    -0.04874802
H      0.68875713    -1.39345529    -0.01241288
H     -0.24920311    -2.03042123    -1.14437717
12
water clusters train frame=704
O      1.95576285     0.04145190     0.11191799
H      1.32809623     0.66634057     0.10775578
H      2.10150192    -0.11274277     1.05886744
O     -0.03374282     2.00201368    -0.15310180
H     -0.72619363     1.22573915    -0.03558026
H      0.15475809     2.10695136    -1.08445153
O     -1.89942484    -0.03487347     0.14798732
H     -1.42475757    -0.67271546     0.05370092
H     -2.03325815     0.14630547     1.14237186
O      0.02681507    -1.93882025    -0.07141610
H      0.70082427    -1.26308301    -0.06067837
H     -0.04416425    -2.07112399    -1.10116574
12
water clusters train frame=705
O      1.93961942    -0.00274916     0.22898701
H      1.25046824     0.65330519     0.08594972
H      1.99300132    -0.14904605     1.04448813
O      0.03993682     1.90944453    -0.09902407
H     -0.60145727     1.37779001    -0.23332067
H      0.10423372     2.07457351    -1.11064119
O     -2.01387572     0.02369331     0.11364923
H     -1.17970170    -0.64303059     0.07613186
H     -2.10785886     0.12538615     1.01879757
O      0.01833036    -2.04623784    -0.13491960
H      0.67971506    -1.23740235    -0.08084364
H     -0.06922190    -2.06404995    -1.07661868
12
water clusters train frame=706
O      1.90698654     0.10166943     0.21030588
H      1.40168201     0.74987659     0.04757813
H      2.17805091    -0.14668069     1.17877400
O     -0.12589155     1.82161067    -0.08764737
H     -0.68925941     1.26809748    -0.06511135
H      0.12281183     1.91917734    -1.06940176
O     -2.00819040    -0.09386968     0.04636395
H     -1.17069767    -0.70542126     0.06236511
H     -2.08124390    -0.00293831     1.08540258
O     -0.04793832    -1.89337471    -0.01553574
H      0.59011256    -1.33098847     0.00970885
H     -0.06579903    -2.10607473    -1.09093028
12
water clusters train frame=707
O      1.97629231    -0.03124058     0.21726889
H      1.20457674     0.67275420     0.07785194
H      2.01930495    -0.11192932     1.12308952
O      0.03012328     1.96362693    -0.10046287
H     -0.73583036     1.25924541    -0.11196750
H      0.03779542     2.08386098    -1.08545985
O     -1.94648774     0.00575729     0.12111582
H     -1.27362011    -0.65151631     0.13479008
H     -2.13367002     0.14822327     1.03726009
O      0.01281668    -1.92748453    -0.18509797
H      0.67851433    -1.25977190    -0.13956276
H     -0.10192161    -2.09794238    -1.11537944
12
water clusters train frame=708
O      1.93362029    -0.01493653     0.16660581
H      1.29353563     0.70992414     0.09641889
H      2.01411350    -0.12124735     1.10810518
O     -0.02530697     1.90930460    -0.14219004
H     -0.64307101     1.23376034    -0.07062125
H      0.16793750     2.12355834    -1.08529318
O     -1.88205051     0.03642428     0.14509965
H     -1.20643028    -0.69441211     0.04288611
H     -1.99664057     0.12104317     1.24668880
O     -0.01165332    -1.91922753    -0.06262931
H      0.59548333    -1.17900854    -0.17791478
H     -0.14019730    -2.14499769    -1.16748882
12
water clusters train frame=709
O      1.90835584    -0.02852514     0.08563114
H      1.40218392     0.80692567     0.15121623
H      2.10855216    -0.20350528     1.11340379
O     -0.05761868     1.91656391    -0.08123748
H     -0.64546723     1.34259080    -0.06578455
H      0.17437078     2.07829175    -1.17104316
O     -2.11234627    -0.02495435     0.11893824
H     -1.32676904    -0.67800820     0.03410273
H     -1.91406873     0.15656674     1.06135106
O      0.07042380    -1.85425801    -0.10066707
H      0.60724034    -1.27869709    -0.13626837
H     -0.16323481    -2.22040682    -1.13443962
12
water clusters train frame=710
O      1.96459035    -0.00188226     0.14863765
H      1.27929671     0.70893706     0.10177232
H      2.11404085    -0.21607807     1.07200125
O      0.01391580     1.91222694    -0.08785680
H     -0.66767301     1.28053131    -0.15580719
H      0.16766179     2.09793284    -1.09747316
O     -1.91751722    -0.05683267     0.15366002
H     -1.21240513    -0.60131384     0.03058285
H     -2.12643989     0.09850965     1.03855527
O      0.08579895    -1.95028507    -0.15775368
H      0.68134861    -1.32251075    -0.09115726
H     -0.12223227    -2.07578468    -1.13495558
12
water clusters train frame=711
O      2.01224596     0.09050422     0.15841430
H      1.27490620     0.63348799     0.04890706
H      2.07648962    -0.16428375     1.11820262
O     -0.06206412     2.04330101    -0.15322703
H     -0.70161225     1.33900274    -0.08262924
H      0.06023410     2.15094650    -0.98273603
O     -1.91057605    -0.03249107     0.15808618
H     -1.23632317    -0.62179915     0.09489239
H     -2.17092024     0.26814179     1.01080795
O     -0.04390101    -2.00289487    -0.17689466
H      0.63265372    -1.30014200    -0.11362687
H     -0.16532396    -2.00796028    -1.05242570
12
water clusters train frame=712
O      1.94565557     0.04214636     0.15224081
H      1.26941992     0.67039705     0.01074559
H      2.09946318    -0.15110712     1.22272221
O     -0.02027636     1.94224200    -0.13321175
H     -0.65635751     1.17892278    -0.15668147
H      0.04419444     2.09135346    -1.14096558
O     -1.87413758    -0.00714750     0.12966336
H     -1.32581435    -0.66327595     0.09989773
H     -2.08300381     0.07844341     1.25130506
O      0.04827494    -1.96086765    -0.15065032
H      0.48949629    -1.22040613    -0.01470143
H     -0.09643978    -2.11027161    -1.01996401
12
water clusters train frame=713
O      1.92016852    -0.01030144     0.15281970
H      1.28903925     0.76845559     0.12282414
H      2.10911980    -0.14286945     1.03868829
O      0.00201351     1.86682698    -0.18174471
H     -0.62224218     1.26019953    -0.09984633
H      0.13297270     2.08284972    -1.06211588
O     -1.94767875    -0.01238899     0.20422924
H     -1.21229740    -0.70950089     0.10362542
H     -2.14881356     0.10667442     1.07978300
O     -0.00083504    -1.95317539    -0.22632871
H      0.64458722    -1.24514378    -0.14472632
H     -0.20755573    -2.12747853    -1.11723245
12
water clusters train frame=714
O      1.96158695     0.06531270     0.17365237
H      1.28262717     0.78783744     0.15426726
H      2.03841624    -0.07753105     1.19625119
O      0.07574301     2.00876001    -0.11589443
H     -0.70365393     1.37095997    -0.05451583
H      0.11210890     2.04995737    -1.13732307
O     -1.88861641     0.08571675     0.15547466
H     -1.34551976    -0.72951195     0.00951751
H     -2.13823233     0.10326728     1.12811280
O      0.00178453    -1.95980843    -0.23762537
H      0.66199498    -1.17353495    -0.10194643
H     -0.20593644    -1.96948678    -1.07175431
12
water clusters train frame=715
O      1.82593045    -0.07371497     0.25688980
H      1.21612511     0.68901929     0.01594993
H      2.11160889    -0.09502787     1.26012048
O      0.05771689     1.94423286    -0.21470469
H     -0.59292870     1.41650906    -0.11115928
H      0.06822301     2.24563930    -1.03699622
O     -2.07665284     0.06069558     0.16270568
H     -1.22875870    -0.67281078    -0.02635749
H     -2.08452145     0.18596890     1.01059629
O      0.10530596    -1.98997863    -0.10303302
H      0.63704171    -1.32952732    -0.03252681
H     -0.26093384    -2.11102466    -1.02334664
12
water clusters train frame=716
O      1.96013637    -0.03371266     0.13141479
H      1.28757424     0.64344220     0.10818970
H      2.07815950    -0.19237394     1.07206100
O     -0.02022433     1.99725792    -0.15500227
H     -0.64528055     1.30844069    -0.01815663
H      0.06966266     2.05475940    -1.11015019
O     -1.88778664     0.01327321     0.08158373
H     -1.28830796    -0.69919811     0.09067593
H     -2.06306436     0.17083886     1.14099232
O      0.06103114    -1.96073473    -0.12388605
H      0.74777664    -1.30256603    -0.11341033
H     -0.09957773    -2.08922304    -1.11518837
12
water clusters train frame=717
O      1.90756719     0.02850211     0.07142930
H      1.38250170     0.60363257     0.08705696
H      2.04941524    -0.08554586     1.06548985
O      0.03142179     1.92835501    -0.09794659
H     -0.63873935     1.23377819    -0.12465199
H      0.21915719     2.12444772    -1.04388526
O     -1.94350845     0.00456157     0.04717470
H     -1.32277226    -0.66132263     0.09871882
H     -2.11924451     0.17802221     1.12131270
O     -0.04199101    -1.93337446    -0.15798714
H      0.71654394    -1.16303936    -0.07369339
H     -0.16775305    -2.07982549    -1.17244274
12
water clusters train frame=718
O      1.88619609     0.00910846     0.14036545
H      1.22547214     0.67070322    -0.05830689
H      2.01756120    -0.05178624     1.11534257
O     -0.00706657     1.99506342    -0.22966130
H     -0.64094565     1.21574197    -0.14205375
H      0.07575388     1.96414609    -1.05873259
O     -2.01630277     0.06874465     0.18380799
H     -1.46401195    -0.70954213     0.02458884
H     -2.04624246     0.09256734     1.05213357
O      0.04545328    -1.96895332    -0.17227870
H      0.61756428    -1.22924063    -0.15930696
H     -0.08013737    -2.06583529    -1.03882277
12
water clusters train frame=719
O      1.92974848     0.05355129     0.20643778
H      1.26221124     0.69184778     0.11132786
H      2.18920721    -0.11762127     1.08972548
O     -0.01979149     1.98166637    -0.20163169
H     -0.69535418     1.26322610    -0.13538210
H      0.11837435     2.08739812    -1.14305451
O     -1.88387754    -0.00064168     0.15217832
H     -1.28938806    -0.66442800     0.09960908
H     -2.07875343     0.14449646     1.12227096
O     -0.04963761    -1.95886021    -0.14827916
H      0.69596472    -1.20633835    -0.08272135
H     -0.12263821    -2.10616181    -1.10840284
12
water clusters train frame=720
O      1.94237560     0.02769686     0.14802005
H      1.40501359     0.70069211     0.11534999
H      2.08960697    -0.07492510     1.10455673
O     -0.04707456     1.96448876    -0.02467824
H     -0.76730166     1.22409253    -0.14206713
H      0.22083172     2.08995884    -0.98235629
O     -1.95861558    -0.05190503     0.09845123
H     -1.27015454    -0.62507716     0.10043675
H     -2.10832776     0.17718047     1.16306380
O      0.02502064    -1.94813044    -0.24734575
H      0.73011012    -1.30831237    -0.11642800
H     -0.16152705    -1.98641959    -1.09766589
12
water clusters train frame=721
O      2.02586482     0.02251887     0.16104488
H      1.29836977     0.51585799     0.14333502
H      2.29083459    -0.19667203     1.04380733
O     -0.06059603     1.83226601    -0.18670824
H     -0.74011374     1.31674672    -0.12703512
H      0.15294662     2.08686035    -1.09700714
O     -1.95788695    -0.11487922     0.25062938
H     -1.24230608    -0.71018249     0.04877121
H     -2.17591678    -0.07006948     1.03198258
O     -0.00596334    -1.82294917    -0.23488763
H      0.75096594    -1.18389033    -0.12090417
H     -0.22690007    -2.03970461    -1.10866196
12
water clusters train frame=722
O      1.88757847    -0.02139632     0.15982626
H      1.29929570     0.63819526     0.12393648
H      2.10294042    -0.19090336     1.03999406
O     -0.01080156     1.87493213    -0.24109617
H     -0.68487861     1.24452322    -0.11508175
H      0.16205064     1.99813970    -1.04067410
O     -1.91270989     0.02600704     0.17428092
H     -1.32140312    -0.68963600     0.00993551
H     -2.12556241     0.12935917     1.07936273
O      0.00850519    -1.94200099    -0.14255235
H      0.64505522    -1.27051799    -0.14689083
H     -0.19293614    -2.06683827    -1.11245393
12
water clusters train frame=723
O      1.98946719    -0.06042883     0.12419954
H      1.35337729     0.69463487     0.10945257
H      2.06053541    -0.18932801     1.03851079
O     -0.00957483     1.96469456    -0.13220066
H     -0.63901379     1.29234048    -0.04674173
H      0.16023711     2.10206014    -1.10134016
O     -1.89185522    -0.04676001     0.17384652
H     -1.21968060    -0.74780687     0.18778885
H     -2.07008595     0.08263335     1.02751564
O      0.06448871    -1.92275879    -0.19515566
H      0.78061630    -1.26577133    -0.09108819
H     -0.16721606    -2.01078996    -1.14903428
12
water clusters train frame=724
O      1.97237555    -0.15157869     0.21034922
H      1.29379090     0.72771715     0.15524827
H      2.00486059    -0.38207853     1.04114099
O      0.04730819     2.01122068    -0.09829381
H     -0.75193418     1.33974867    -0.00316799
H      0.26879014     2.21435183    -1.18584541
O     -1.85455160     0.05084031     0.41425669
H     -1.25371545    -0.73581679     0.20715859
H     -2.26189020     0.06391273     1.16572972
O     -0.00328368    -2.04264143    -0.10693138
H      0.66708383    -1.31355339    -0.15419561
H     -0.14768167    -2.14919950    -1.10327076
12
water clusters train frame=725
O      1.91021715    -0.03068290     0.16229713
H      1.27532701     0.58537965     0.06323925
H      2.04824444    -0.13834464     1.06569398
O      0.02291101     1.98912034    -0.14238175
H     -0.69034618     1.26840142    -0.00113653
H      0.13085642     2.09522937    -1.08846693
O     -1.91953596    -0.02703698     0.10654273
H     -1.29674116    -0.67428724     0.06434295
H     -2.13207001     0.19503227     1.04485301
O     -0.12393561    -1.93937386    -0.18417382
H      0.63026021    -1.27515771    -0.09143484
H     -0.16020538    -2.09581628    -1.12992945
12
water clusters train frame=726
O      1.90411499    -0.05672339     0.10487803
H      1.29715317     0.60790803     0.17728024
H      2.05609201    -0.12013447     1.05817154
O      0.08231046     1.83103122    -0.11549760
H     -0.60066587     1.20698730    -0.03125620
H      0.07680503     2.02320027    -1.07459257
O     -2.00265374    -0.01066698     0.19677922
H     -1.38431510    -0.73916920     0.01720357
H     -2.09825242     0.16214299     1.03180749
O     -0.07233516    -1.97315878    -0.09841268
H      0.56311245    -1.29435065    -0.07093759
H     -0.11429336    -2.03311696    -1.19153028
12
water clusters train frame=727
O      1.93404520    -0.02545726     0.21940017
H      1.40899485     0.71636470     0.14343701
H      2.19935240    -0.16031117     1.07714019
O     -0.03837055     1.85227256    -0.19034097
H     -0.70494494     1.34169204     0.00544885
H      0.09367544     2.09639388    -0.94081081
O     -1.92208611     0.01268528     0.27233193
H     -1.33722975    -0.55080031    -0.02282354
H     -2.12789816     0.17850545     1.12821085
O     -0.06400546    -1.98518514    -0.02647205
H      0.70646058    -1.38233289     0.03604359
H     -0.19430917    -2.00268774    -1.12862271
12
water clusters train frame=728
O      2.00287385     0.04227892     0.08068141
H      1.28682472     0.68754179     0.15576785
H      2.12997676    -0.14572671     1.10175122
O     -0.01334934     1.93967286    -0.17402793
H     -0.63323842     1.33616650    -0.06034507
H      0.23606650     2.07045493    -1.06590968
O     -1.97642200    -0.02137585     0.16157197
H     -1.20877253    -0.68642917     0.11130578
H     -2.05709944     0.18457783     1.14078885
O     -0.06144849    -1.87981699    -0.22097303
H      0.58107714    -1.25036256    -0.09250452
H     -0.16327841    -2.12444615    -1.04128809
12
water clusters train frame=729
O      1.98658235     0.00012340     0.12012196
H      1.26475039     0.68872829     0.11423811
H      2.10049091    -0.11745738     1.09798664
O      0.01543030     2.03421287    -0.12789099
H     -0.58192238     1.27166405    -0.08576851
H      0.19182947     2.08085498    -1.10912444
O     -2.08696461     0.00574810     0.16801298
H     -1.28020943    -0.67598466     0.15596735
H     -2.09133593     0.13125147     1.13976654
O     -0.09597127    -1.88928450    -0.10374883
H      0.72372716    -1.31492159    -0.04926826
H     -0.15579391    -2.05962776    -1.15899854
12
water clusters train frame=730
O      2.03670016     0.14478038     0.05168179
H      1.18735060     0.62638554     0.17841426
H      2.14015467    -0.15738225     1.08508457
O     -0.00605710     1.98646142    -0.13892702
H     -0.77315581     1.41725261    -0.12412755
H      0.00963570     2.14953960    -0.98329397
O     -1.87463032    -0.07643989     0.23276157
H     -1.37575778    -0.81599751     0.11452813
H     -2.13464736     0.13881822     1.18073075
O      0.03834275    -1.88560768    -0.10917823
H      0.68652508    -1.22832401     0.00036874
H     -0.14526519    -2.09056182    -1.25398025
12
water clusters train frame=731
O      1.92401723     0.02128977     0.12937317
H      1.26225223     0.66218256     0.11994325
H      2.08584940    -0.11351514     1.06405825
O     -0.02899264     1.87708697    -0.19902854
H     -0.67541890     1.30009104    -0.07831473
H      0.12516713     2.14615152    -1.08158201
O     -1.98510783    -0.01103406     0.22554117
H     -1.27808089    -0.68717465     0.05779524
H     -2.06856396     0.18089294     1.11706411
O     -0.06667012    -1.99898435    -0.19729475
H      0.65844748    -1.25948992    -0.07046000
H     -0.12481522    -2.04361423    -1.04118392
12
water clusters train frame=732
O      1.98950829     0.07232933     0.09938720
H      1.27836264     0.74369369     0.10153528
H      2.07931481    -0.08915923     1.04547928
O     -0.03818216     1.94371023    -0.20205893
H     -0.71337708     1.29029429    -0.02220440
H      0.11990890     2.02773233    -1.14922583
O     -1.83286487     0.00410289     0.13649569
H     -1.40148984    -0.64895284     0.01474575
H     -2.05980746     0.04716934     1.07489011
O      0.05243409    -1.98892732    -0.10593506
H      0.63984323    -1.21526355    -0.15860524
H     -0.09081943    -2.10600098    -1.20391089
12
water clusters train frame=733
O      1.96273448     0.11303496     0.10306672
H      1.31371352     0.68166982     0.19244628
H      2.11773049    -0.08497279     1.08004561
O     -0.00086141     1.93677689    -0.02216075
H     -0.56118289     1.10648364    -0.01490729
H      0.18175489     2.12173314    -1.07138254
O     -1.82857662    -0.00342425     0.21793279
H     -1.35917120    -0.74842532     0.16567623
H     -2.02545366     0.25326297     1.05178597
O     -0.05907261    -1.84837303    -0.32446818
H      0.60325192    -1.40069387    -0.09310966
H     -0.08116979    -1.96035436    -1.22482169
12
water clusters train frame=734
O      2.02248200     0.03026196     0.13929145
H      1.25198102     0.60431115     0.16278403
H      2.04403275    -0.08505270     1.05360020
O      0.02117498     1.95079915    -0.13645855
H     -0.71128421     1.25098291    -0.09380315
H      0.18413173     2.02688139    -1.10245458
O     -1.99434160     0.09598980     0.17811281
H     -1.31003000    -0.65629631     0.07811623
H     -2.10229876     0.10147988     1.12286039
O     -0.02282780    -1.94809653    -0.13440810
H      0.68269951    -1.35268040    -0.05975803
H     -0.13418102    -2.06956175    -1.13360576
12
water clusters train frame=735
O      1.91677249    -0.04359674     0.11283312
H      1.25184327     0.64116538     0.12741053
H      2.05874361    -0.22897969     1.07961984
O      0.02806821     1.94597992    -0.25171115
H     -0.67909198     1.33995174    -0.07643537
H      0.13210460     2.05015350    -1.03957399
O     -1.95858755     0.03730002     0.12431318
H     -1.27220727    -0.67890890     0.10529230
H     -1.99694758     0.10193931     1.08196922
O      0.04848437    -1.94243593    -0.09653512
H      0.76547230    -1.30965645    -0.16356677
H     -0.02556653    -2.06510496    -1.01265053
12
water clusters train frame=736
O      1.91829475     0.05523142     0.22082674
H      1.34197615     0.74622363     0.17813118
H      2.09255095    -0.11093031     1.14039809
O      0.01253424     1.94616361    -0.17464062
H     -0.69107427     1.29231144    -0.08442627
H      0.09259014     2.04908923    -1.03899932
O     -1.95794826    -0.00787223     0.20465408
H     -1.27918440    -0.64134110    -0.04958938
H     -2.09061470     0.08530561     1.03621048
O      0.03582952    -1.96827245    -0.18891454
H      0.83372561    -1.49888374    -0.26840774
H     -0.23562094    -2.12826164    -0.95120197
12
water clusters train frame=737
O      1.97438106     0.06284267     0.15325082
H      1.27645474     0.72397838     0.12381881
H      2.11976576    -0.10334425     1.03008086
O     -0.00307230     1.99250929    -0.20615195
H     -0.71942870     1.23467791    -0.11582406
H      0.11647486     2.04689265    -1.12645466
O     -2.05258231    -0.00248900     0.19746256
H     -1.27671675    -0.69475931     0.16401051
H     -2.02805552     0.13851018     1.06769074
O      0.04770909    -1.97152643    -0.11545090
H      0.73328664    -1.26087885    -0.10039771
H     -0.10502803    -2.16610249    -1.11394102
12
water clusters train frame=738
O      1.98867805     0.01279164     0.11855334
H      1.30842190     0.54196549     0.05636388
H      2.07589435    -0.10626746     1.17285271
O      0.02831618     1.90233645    -0.20675406
H     -0.70148754     1.25073079    -0.07995233
H      0.15940594     2.06370882    -1.15660356
O     -1.88482501     0.03348102     0.14895660
H     -1.24006788    -0.72298454     0.17541511
H     -2.05574260     0.18959548     1.05636792
O     -0.04831100    -1.92108894    -0.09541840
H      0.71934774    -1.17651032    -0.17929568
H     -0.16359981    -2.03945978    -1.12892321
12
water clusters train frame=739
O      1.94762079     0.14649270     0.25747038
H      1.17518180     0.66858375     0.13017621
H      2.10392586    -0.15569132     1.02291678
O      0.02377565     1.94725870    -0.22377857
H     -0.63887902     1.30515647     0.04628022
H      0.09270141     2.18382111    -1.06854599
O     -1.90281366    -0.14298240     0.13720432
H     -1.36813400    -0.72060519    -0.01591808
H     -1.94014885     0.14981665     1.10363956
O     -0.02020096    -2.03254132    -0.12655040
H      0.75173080    -1.30499409     0.02512734
H     -0.08602625    -2.03913386    -1.07559804
12
water clusters train frame=740
O      1.93433290     0.04153855     0.05347668
H      1.26690060     0.74742660     0.12630168
H      2.16413463    -0.07882943     1.06970386
O      0.02421445     1.95007500    -0.21733745
H     -0.65700802     1.23061273    -0.08046967
H      0.14902535     2.11845593    -1.09968038
O     -1.97192828    -0.00215481     0.16540166
H     -1.25704727    -0.73008807     0.02019490
H     -2.13397917     0.14892559     1.12810160
O     -0.00952124    -1.92317353    -0.15540584
H      0.65996798    -1.18009964    -0.12147878
H     -0.10413184    -2.06885681    -1.09300799
12
water clusters train frame=741
O      1.96811427    -0.09013903     0.25521676
H      1.39932932     0.65778406     0.15776171
H      2.11507866    -0.11503412     1.03608922
O     -0.01896187     1.84460813    -0.06251282
H     -0.72169147     1.29739629    -0.05014107
H      0.09770369     2.04090561    -1.08979673
O     -1.93717761     0.00798955     0.14518811
H     -1.39934946    -0.58640207     0.18946913
H     -2.16342482     0.08904325     1.10562129
O     -0.07618547    -1.92182066    -0.16182779
H      0.68691215    -1.38898832    -0.09347627
H     -0.08611718    -2.09744920    -1.16317144
12
water clusters train frame=742
O      2.00921941     0.02995295     0.10148756
H      1.27378753     0.56947813     0.07671124
H      2.10884075    -0.08796095     1.01851376
O     -0.09662865     1.87285785    -0.12553708
H     -0.64309241     1.25871995    -0.11901988
H      0.09842745     2.10724086    -1.26592054
O     -2.00339513     0.00567267     0.20210354
H     -1.31754462    -0.77125099    -0.03109770
H     -2.05683753     0.25546898     1.11121443
O     -0.02650374    -1.86094077    -0.12774751
H      0.58970720    -1.19571124    -0.11160457
H     -0.03588444    -2.11688110    -1.11739237
12
water clusters train frame=743
O      1.94141666     0.01024389     0.17925085
H      1.31184909     0.65517543     0.04364460
H      2.07657344    -0.02405888     1.17129005
O      0.05133424     1.97821442    -0.13468662
H     -0.69966148     1.25808157    -0.08249317
H      0.07092449     2.08498012    -1.02905096
O     -2.00337275    -0.01132294     0.16069836
H     -1.25661265    -0.61567119     0.15119602
H     -2.02289467     0.08358647     1.11283686
O     -0.02832662    -1.89860531    -0.17975362
H      0.68839045    -1.24186652    -0.15970961
H     -0.08237690    -2.11652267    -1.08271818
12
water clusters train frame=744
O      1.87955629    -0.02145853     0.20957326
H      1.26734810     0.57563178     0.06239132
H      2.04807612    -0.19048851     1.09471090
O     -0.01818001     1.93599140    -0.20150888
H     -0.70960163     1.23759394    -0.07323762
H      0.06808765     2.09581824    -1.15469116
O     -2.01715052    -0.11007315     0.15945934
H     -1.21054619    -0.57521002     0.16882568
H     -2.05900955     0.14426871     1.16474713
O     -0.03744232    -1.92871970    -0.20276779
H      0.66257256    -1.26238614    -0.06258071
H     -0.13104523    -2.15332953    -1.11928914
12
water clusters train frame=745
O      1.90593879    -0.00903763     0.17150989
H      1.17760452     0.79764829     0.11433679
H      2.02749963    -0.04580233     1.12597670
O      0.04669800     1.92295524    -0.21930524
H     -0.53774453     1.46882317    -0.06894213
H      0.09162968     2.08975469    -1.08601450
O     -1.93407006     0.10896112     0.22905251
H     -1.34041860    -0.69076201     0.30822516
H     -2.06445261     0.15263015     1.09699490
O      0.02534542    -1.96514921    -0.15590289
H      0.76176187    -1.34991433    -0.21183247
H     -0.15519498    -2.00209743    -1.18155942
12
water clusters train frame=746
O      1.93297092     0.03179797     0.19174686
H      1.27205643     0.63025703     0.14283325
H      2.06419368    -0.14586266     1.03421683
O      0.03720432     1.95515513    -0.16728255
H     -0.66292899     1.25266519    -0.07874108
H      0.13620253     2.13634793    -1.08005196
O     -1.95371205     0.01330426     0.19851185
H     -1.21839358    -0.79390817     0.13734681
H     -2.04206629     0.16257881     1.06035513
O     -0.01317864    -1.94699891    -0.08817240
H      0.67063855    -1.21312034    -0.07947521
H     -0.16051748    -2.15505938    -1.12496069
12
water clusters train frame=747
O      1.93797466     0.15919779     0.21372681
H      1.32200726     0.68266406     0.06534229
H      2.07471236    -0.15151073     1.15052403
O     -0.10903390     1.95712890    -0.09852830
H     -0.64401935     1.33446474    -0.14528212
H      0.06294333     2.10648333    -1.16775558
O     -1.95619297     0.15613721     0.15578196
H     -1.29426930    -0.69909067     0.20029251
H     -2.15709590     0.07045663     1.13753641
O      0.04628181    -1.91495339    -0.14492737
H      0.69865221    -1.35281237    -0.10481445
H     -0.13254777    -2.07574729    -1.08175706
12
water clusters train frame=748
O      1.86337941     0.04294463    -0.02621361
H      1.09395047     0.69629210    -0.00526272
H      2.12710569    -0.12545302     0.97109207
O     -0.02762524     2.04711359    -0.12445241
H     -0.68499210     1.34299680    -0.15150211
H      0.13308021     2.10178577    -1.09188858
O     -1.96192547     0.03510304     0.10501805
H     -1.16561882    -0.63962183     0.23925485
H     -2.23493868     0.08762435     1.21392593
O     -0.05004324    -1.92149628    -0.17532769
H      0.55445387    -1.15182297    -0.07277457
H     -0.00648982    -2.10514469    -1.16155401
12
water clusters train frame=749
O      1.99129821    -0.00284094     0.11929409
H      1.32359776     0.65135245     0.07029310
H      2.08205571    -0.09090235     1.00518375
O      0.04316842     1.89844905    -0.13160322
H     -0.68714785     1.21249053    -0.06678978
H      0.12234682     2.09979041    -1.02950046
O     -1.93295216    -0.01970679     0.11736984
H     -1.30374367    -0.68612900     0.12171871
H     -2.09522995     0.12775557     1.08320008
O     -0.04985757    -1.99417057    -0.13479160
H      0.62532345    -1.20327427    -0.07188207
H     -0.07229394    -2.10565331    -1.10776236
15
water clusters train frame=750
O      2.36065407     0.02866878     0.20289875
H      1.80037467     0.77697495     0.15155515
H      2.39730713    -0.13193226     1.12115815
O      0.72941337     2.22318855    -0.06687906
H     -0.15714831     1.99917159    -0.09819352
H      0.96326168     2.30890747    -1.14292273
O     -1.91617195     1.45526966     0.16270915
H     -1.97620311     0.45477096     0.14870983
H     -1.81733349     1.63075902     1.14152513
O     -1.91119641    -1.38693677    -0.18494227
H     -0.99633827    -1.67853173    -0.13902908
H     -2.08411431    -1.32561634    -1.09662923
O      0.73541460    -2.21868206     0.17014276
H      1.34560727    -1.48430900     0.04772484
H      0.57603695    -2.41432979     1.09177678
15
water clusters train frame=751
O      2.39691191     0.10650725     0.21230111
H      1.89609576     0.83490735    -0.00180832
H      2.40564894    -0.13567006     1.00192700
O      0.75438400     2.16388724    -0.12778448
H     -0.21399981     1.95290517    -0.10095446
H      0.78683034     2.29504294    -1.06878875
O     -1.82403918     1.47393540     0.26766797
H     -1.93744325     0.47749294     0.08679823
H     -1.91351825     1.59435456     1.11631967
O     -1.93991357    -1.37681094    -0.18021796
H     -1.02574004    -1.72120538     0.03705858
H     -2.07423736    -1.29796834    -1.22480495
O      0.68344692    -2.23362201     0.24199572
H      1.34299485    -1.51648639    -0.01678010
H      0.64424325    -2.42047012     1.06575343
15
water clusters train frame=752
O      2.32014850    -0.03660075     0.07538154
H      1.71988106     0.93232607     0.16864206
H      2.32028638    -0.17751266     0.93763137
O      0.71851240     2.27397318    -0.04890463
H     -0.34563587     1.95989534    -0.12163607
H      0.77252526     2.39208121    -1.03696454
O     -1.83829803     1.29175687     0.25347845
H     -1.78397614     0.50420414     0.11975224
H     -1.85299014     1.55853156     1.16308443
O     -1.88372497    -1.23702980    -0.17292566
H     -1.09121768    -1.76259053    -0.08642247
H     -2.14474610    -1.37635711    -1.13152942
O      0.76551587    -2.15151481     0.19033969
H      1.33053320    -1.39169665    -0.02186981
H      0.58233563    -2.43257563     1.00870837
15
water clusters train frame=753
O      2.33040730     0.00080569     0.10907906
H      1.80061365     0.77767323     0.07670804
H      2.43939147    -0.08915199     1.03437958
O      0.77883403     2.24760841    -0.20020372
H     -0.17218549     1.99375865    -0.06619785
H      0.93779067     2.16242045    -1.06976484
O     -1.92639245     1.40172155     0.12988510
H     -1.96868305     0.45099589     0.12571231
H     -1.87186346     1.56003215     1.15645997
O     -1.92125980    -1.35062708    -0.16691691
H     -0.99980600    -1.66768179    -0.08011848
H     -2.10394343    -1.33761827    -1.14670740
O      0.72439136    -2.16865608     0.15723208
H      1.31393636    -1.44385899     0.10331241
H      0.63664899    -2.35492330     1.07937618
15
water clusters train frame=754
O      2.35356686    -0.07282920     0.18166261
H      1.73385196     0.67642892     0.11216862
H      2.54348512    -0.12054861     1.13654201
O      0.73527984     2.22305835    -0.17755713
H     -0.20472198     1.91791607    -0.10241919
H      0.88146286     2.38416375    -1.06105766
O     -1.85965103     1.33200842     0.07827395
H     -2.01196852     0.44041260     0.07307316
H     -1.88880023     1.56674806     1.14648857
O     -1.88854929    -1.38426800    -0.23379731
H     -0.97383533    -1.72310455    -0.15489454
H     -2.03779387    -1.30517600    -1.07033672
O      0.58372211    -2.31764989     0.15787214
H      1.24618685    -1.47006770     0.05711326
H      0.47254991    -2.43353844     1.11386808
15
water clusters train frame=755
O      2.32231836    -0.03081556     0.13227282
H      1.73586119     0.76862005    -0.03202105
H      2.58875790    -0.30520698     1.14435357
O      0.74260893     2.19733229    -0.13921037
H     -0.21622617     1.94710126    -0.10004362
H      0.76237484     2.27399539    -1.10541761
O     -1.96007004     1.61566580     0.15876952
H     -1.88522768     0.48351190     0.23803805
H     -1.92891437     1.56505252     1.04108967
O     -1.99013468    -1.47153090    -0.12185186
H     -0.94315851    -1.57510123    -0.17179357
H     -2.06913337    -1.40489323    -1.20990963
O      0.67727282    -2.21695909     0.22570968
H      1.20962283    -1.55000105     0.07150932
H      0.59808331    -2.43194538     1.10233496
15
water clusters train frame=756
O      2.32842997    -0.05009780     0.15962395
H      1.83938099     0.73315573     0.05250099
H      2.40290150    -0.10489441     1.20059701
O      0.69613657     2.16939003    -0.09924479
H     -0.17162098     1.99927600    -0.06561846
H      0.88230709     2.28478341    -1.13784881
O     -1.92323032     1.39983543     0.19783787
H     -1.90383588     0.40364240     0.15444232
H     -1.92488425     1.59924503     1.06258893
O     -1.88044406    -1.40537553    -0.13319531
H     -0.99227930    -1.65734918    -0.10010656
H     -2.06613689    -1.37982185    -1.09198411
O      0.74186974    -2.25199503     0.12956326
H      1.29318763    -1.43882753     0.12174063
H      0.62850311    -2.43291090     1.10113131
15
water clusters train frame=757
O      2.27764707     0.01080182     0.15625205
H      1.74618784     0.87178306     0.08010717
H      2.45339102    -0.17010418     1.09942216
O      0.80890507     2.27819006    -0.16240946
H     -0.15204700     1.93920329    -0.09922780
H      0.85491988     2.23849649    -1.12503644
O     -1.92680275     1.42448764     0.17579588
H     -1.73184963     0.45040567     0.02088835
H     -1.97327441     1.61362274     1.10257431
O     -1.80710177    -1.46425619    -0.14606054
H     -1.02200644    -1.70889207    -0.09217787
H     -2.12656846    -1.34034251    -1.20746612
O      0.68339086    -2.22045387     0.10167610
H      1.31725988    -1.45548985     0.11588383
H      0.64957317    -2.36216467     1.09575487
15
water clusters train frame=758
O      2.42046830     0.20282961     0.16370583
H      1.74486765     0.62298981     0.11786052
H      2.36932712    -0.19206502     0.97568119
O      0.81085076     2.26475130    -0.23255130
H     -0.17430495     1.77497505    -0.06672798
H      0.96514337     2.24881103    -1.21004754
O     -1.96658386     1.39730316     0.33146973
H     -1.82426950     0.38107403    -0.02924852
H     -1.92078178     1.57000713     1.07963582
O     -1.83829260    -1.52816488    -0.26298847
H     -0.97738177    -1.82214052    -0.14680539
H     -2.10183713    -1.31691046    -1.06688414
O      0.75430118    -2.34065347     0.25856734
H      1.25780572    -1.40099745     0.16438866
H      0.66295847    -2.40887533     1.27649096
15
water clusters train frame=759
O      2.38475659    -0.00674750     0.13944914
H      1.76043898     0.74956885     0.07593751
H      2.36662819    -0.11796200     1.13311245
O      0.78264515     2.26891265    -0.08704555
H     -0.20281843     1.93909356    -0.11413746
H      0.90895065     2.29050971    -1.06255780
O     -1.89600061     1.42228937     0.13426273
H     -1.86789130     0.36198326     0.15255523
H     -1.94668450     1.50284491     1.06369643
O     -1.92745422    -1.41675137    -0.16214151
H     -0.96019866    -1.70664097    -0.09365151
H     -2.05196987    -1.38591228    -1.07901823
O      0.75979070    -2.26608774     0.08777245
H      1.26247989    -1.45029674     0.12717937
H      0.56123832    -2.45803725     1.08927961
15
water clusters train frame=760
O      2.30371964    -0.03253189     0.18734419
H      1.80238266     0.76839680     0.09380333
H      2.56443977    -0.25308373     1.11557522
O      0.76923786     2.11769910    -0.26038520
H     -0.12309332     2.01185397    -0.09065403
H      0.90981049     2.23008947    -1.13355713
O     -1.81015866     1.40438420     0.18818133
H     -1.91642371     0.41309758     0.09861859
H     -1.89845110     1.48607925     1.03167979
O     -1.93064339    -1.36150966    -0.11902589
H     -1.05072955    -1.66662116    -0.10682111
H     -2.06750884    -1.27649133    -1.03444349
O      0.68296465    -2.28737345     0.20636946
H      1.18887836    -1.32032407     0.04756641
H      0.57834307    -2.28834328     1.12348296
15
water clusters train frame=761
O      2.32133844    -0.09957938     0.14949526
H      1.88908283     0.83942102     0.02816099
H      2.41226052    -0.15484997     1.16074396
O      0.56821932     2.21029002    -0.17021621
H     -0.17546000     1.92741867    -0.14390340
H      0.91891704     2.34964830    -1.05236253
O     -1.83248856     1.41083120     0.07558672
H     -1.94406336     0.38818779     0.15385269
H     -1.84999119     1.46871002     1.07514903
O     -1.99656870    -1.36606839    -0.17366831
H     -1.05694844    -1.60833778    -0.08287334
H     -2.16884759    -1.46663861    -1.04551842
O      0.78263360    -2.21102203     0.29230243
H      1.36305610    -1.52826406     0.14637541
H      0.61410825    -2.53428358     1.06908547
15
water clusters train frame=762
O      2.34142731     0.04971763     0.10764375
H      1.77587833     0.79220821     0.12708699
H      2.42575009    -0.17963009     1.15726474
O      0.69590031     2.19869835    -0.16097569
H     -0.19803560     1.89116923    -0.10573819
H      0.91100504     2.34479182    -1.07108385
O     -1.86485277     1.32475629     0.06611429
H     -1.89544663     0.48321156     0.10243068
H     -1.94269839     1.60518869     1.08988504
O     -1.94757520    -1.34732975    -0.10184915
H     -0.96761740    -1.71918925    -0.05788237
H     -2.03247427    -1.31902553    -1.01229205
O      0.71625975    -2.28473667     0.17430918
H      1.33661675    -1.44031862     0.11309095
H      0.59238358    -2.37985671     1.13659438
15
water clusters train frame=763
O      2.27288137     0.00468244     0.15686620
H      1.80315777     0.76461511     0.08757521
H      2.40472342    -0.28462789     1.05461673
O      0.77881046     2.35376611     0.00408297
H     -0.11312849     1.98571132    -0.17289228
H      0.92259249     2.30363851    -1.07019054
O     -1.98073838     1.37586386     0.23535606
H     -1.83740683     0.39350689     0.03867867
H     -1.89556864     1.54559790     1.13728908
O     -1.88091359    -1.35261719    -0.09625636
H     -0.91260672    -1.73462969    -0.07411502
H     -2.11518699    -1.22111786    -1.13528400
O      0.68362858    -2.16791259     0.27196880
H      1.23876297    -1.43524058     0.10896545
H      0.53742701    -2.41205763     1.05356090
15
water clusters train frame=764
O      2.23210101    -0.06607097     0.08235238
H      1.76580805     0.81223993    -0.03601403
H      2.48367325    -0.20177214     1.01822579
O      0.69266166     2.26328438     0.04024938
H     -0.14236871     1.91930563    -0.11566827
H      0.91187621     2.26570198    -0.97591064
O     -2.11137574     1.40835020     0.10703441
H     -1.95581000     0.48034372     0.24046059
H     -1.89131938     1.37834892     0.99281342
O     -1.99791447    -1.51556745    -0.13117359
H     -0.88940695    -1.68003868    -0.07630692
H     -2.16899967    -1.40084524    -1.15137507
O      0.83238316    -2.10190426     0.27205934
H      1.29857848    -1.40235502     0.05541852
H      0.49827878    -2.49455685     1.14778279
15
water clusters train frame=765
O      2.38587442     0.00511308     0.13055687
H      1.74912087     0.76763082     0.10933363
H      2.38595677    -0.13217446     0.99987365
O      0.77251169     2.21416963    -0.15435340
H     -0.23019347     1.89823453    -0.11786963
H      0.94174382     2.31668868    -1.07073224
O     -1.94935903     1.39768380     0.12559389
H     -1.80878405     0.37769217     0.10941205
H     -1.84477019     1.62667579     1.05271438
O     -1.83334863    -1.35305100    -0.16867582
H     -1.04649007    -1.66612473    -0.10594038
H     -2.10108620    -1.34776705    -1.16254112
O      0.68133994    -2.19101459     0.06898869
H      1.26646256    -1.45639833     0.15229053
H      0.57632518    -2.31301234     1.08924749
15
water clusters train frame=766
O      2.34856762    -0.10078757     0.01105888
H      1.83783591     0.70068667     0.12772011
H      2.53627867    -0.15103788     1.19085828
O      0.78338028     2.12084045    -0.09836261
H     -0.14084134     1.98940486    -0.07773066
H      0.89475763     2.32794568    -0.98733857
O     -1.82787404     1.41195631     0.15121180
H     -1.87712070     0.41981164    -0.05581394
H     -1.98701904     1.56515829     1.05284727
O     -1.91028594    -1.47683759    -0.13417845
H     -1.05052543    -1.71856206    -0.14422506
H     -2.05992955    -1.33148270    -1.09262397
O      0.71071603    -2.32733466     0.11004091
H      1.29000021    -1.60531716     0.03447654
H      0.61425121    -2.44816442     1.03838835
15
water clusters train frame=767
O      2.42490924     0.02621015     0.10108908
H      1.85213072     0.62868685     0.17689192
H      2.33474420    -0.00849252     1.07759784
O      0.71843366     2.18654916    -0.15390970
H     -0.26967388     2.01621452    -0.18315581
H      0.83616979     2.35002788    -1.08107026
O     -1.71632977     1.32063598     0.02920679
H     -1.88147035     0.53262492     0.16553078
H     -1.94173038     1.57661124     0.98485655
O     -1.83571259    -1.27375982    -0.19604758
H     -1.02826687    -1.68238732    -0.13187966
H     -2.18591683    -1.35998072    -1.16327933
O      0.64328357    -2.21770417     0.12450794
H      1.38603882    -1.44119044     0.06030865
H      0.65566249    -2.41795453     1.08870150
15
water clusters train frame=768
O      2.41091654    -0.00258665     0.06093442
H      1.79219885     0.71755298     0.06352356
H      2.50858988    -0.18858802     1.13027460
O      0.72096963     2.22096738    -0.14336724
H     -0.12945035     1.97747920    -0.13259017
H      0.90983742     2.36577632    -1.07610555
O     -1.88125634     1.33596326     0.11369635
H     -1.92422392     0.41192927     0.15226445
H     -1.87459005     1.55656746     1.05830962
O     -1.89986548    -1.33800296    -0.13688441
H     -0.96409504    -1.60344574    -0.02154687
H     -2.07388752    -1.35348260    -1.07979821
O      0.71056785    -2.21258219     0.12235972
H      1.24742702    -1.48859261     0.07709178
H      0.57659749    -2.40887694     1.07410967
15
water clusters train frame=769
O      2.30722962     0.00625069     0.22337685
H      1.89242659     0.72603525     0.03761481
H      2.47897876    -0.19038972     1.06146771
O      0.70868774     2.16067922    -0.21944076
H     -0.24321609     1.92219470    -0.16202325
H      0.92685211     2.30292949    -1.19735459
O     -1.91454634     1.40128872     0.06460707
H     -1.91455754     0.52892131     0.10177401
H     -1.88939744     1.53838305     1.09514209
O     -1.91972882    -1.38087280    -0.14392830
H     -0.90677696    -1.78095951    -0.09333375
H     -2.12354575    -1.32454716    -1.08856657
O      0.72888570    -2.25025956     0.23527413
H      1.31054342    -1.35223684     0.07905524
H      0.58618585    -2.50055697     1.18364506
15
water clusters train frame=770
O      2.32584567    -0.11711302     0.19637251
H      1.82950523     0.82754545    -0.02025955
H      2.35996313    -0.04819795     1.09112267
O      0.72776786     2.28887288    -0.19875459
H     -0.15587027     1.99812883    -0.13714588
H      0.97801558     2.29310777    -1.07624836
O     -2.07527853     1.47616642     0.03779142
H     -2.10165317     0.37092810     0.29054928
H     -1.93525034     1.51443666     1.15456998
O     -1.77818250    -1.44235957    -0.15432973
H     -0.92560940    -1.58035818    -0.08314113
H     -2.00109883    -1.36339063    -1.15617643
O      0.67694772    -2.17933484     0.03875780
H      1.26136028    -1.48541539     0.07536347
H      0.57271885    -2.22361398     1.12160735
15
water clusters train frame=771
O      2.37765359     0.07251697     0.17304557
H      1.78944424     0.83015281     0.04756526
H      2.48661899    -0.09274546     1.06550153
O      0.70114215     2.30020153    -0.13171863
H     -0.11602419     1.92330116    -0.11231008
H      0.87608145     2.26047835    -1.08767714
O     -1.97403396     1.32840224     0.11763421
H     -1.90279613     0.40788960     0.08048837
H     -1.91675020     1.64242231     1.12439876
O     -1.86889348    -1.40802349    -0.11293848
H     -1.04207572    -1.66268010    -0.10814803
H     -2.08938503    -1.34908173    -1.09513020
O      0.80068581    -2.16991209     0.15847279
H      1.20601453    -1.45902108     0.12076521
H      0.59026699    -2.41322143     1.06438411
15
water clusters train frame=772
O      2.32273978     0.03501245     0.19014462
H      1.79924246     0.73880011     0.17216128
H      2.47557404    -0.17209565     1.00984279
O      0.72208365     2.19899914    -0.22049498
H     -0.07581022     1.93285906    -0.16476759
H      0.86965073     2.28278678    -1.02961662
O     -1.83529924     1.36703892     0.22979144
H     -1.89239581     0.35567153     0.00241675
H     -1.90124739     1.64682675     1.18093635
O     -1.82111687    -1.39522009    -0.29020468
H     -0.99070007    -1.68130781    -0.09046609
H     -2.06678510    -1.26763786    -0.99978043
O      0.78600115    -2.26959962     0.25948950
H      1.29157624    -1.48554055     0.17523830
H      0.61597380    -2.40593973     1.02442798
15
water clusters train frame=773
O      2.29545791    -0.18139027     0.19204488
H      1.86804337     0.71475403    -0.00188393
H      2.54493276    -0.18074578     1.08820785
O      0.83440410     2.32070249    -0.26384397
H     -0.14955029     2.03485609    -0.04677732
H      0.89822886     2.21767332    -1.03230533
O     -1.93854062     1.51959151     0.08879996
H     -1.85040672     0.55679413     0.04023041
H     -1.98162283     1.57056754     1.12424823
O     -1.89133693    -1.44161602    -0.18041389
H     -0.89014983    -1.78991179    -0.10237224
H     -2.00947869    -1.40286932    -1.12832087
O      0.73979554    -2.12339185     0.18328511
H      1.36399313    -1.54882276     0.11080904
H      0.67195723    -2.42250871     1.11601777
15
water clusters train frame=774
O      2.41353191    -0.03861125     0.11551075
H      1.82169246     0.72465774    -0.00283564
H      2.47170255    -0.15969306     1.08731435
O      0.71161848     2.23110587    -0.07931238
H     -0.20952018     2.00962283    -0.12985993
H      0.91109543     2.32678615    -1.18253960
O     -1.87091305     1.40238922     0.13290167
H     -1.88533620     0.46652368     0.09961387
H     -1.88147498     1.55442058     1.20471860
O     -1.87247992    -1.40370697    -0.15713430
H     -0.95557637    -1.69359775    -0.11566638
H     -2.12190512    -1.27266826    -1.13602780
O      0.73784351    -2.29049388     0.10804282
H      1.30170240    -1.41986865     0.09970400
H      0.60231665    -2.36560402     1.18231055
15
water clusters train frame=775
O      2.32066475     0.02151013     0.12659016
H      1.84613582     0.76529081     0.11454033
H      2.49089468    -0.12053023     1.14063128
O      0.76882967     2.27776958    -0.11663351
H     -0.15101002     1.91513677    -0.16029465
H      0.83075695     2.25460162    -1.12963141
O     -1.91088752     1.44421963     0.02513433
H     -1.81888554     0.43667274     0.07817150
H     -1.97719529     1.58343075     1.11119762
O     -1.89116341    -1.43070772    -0.18952316
H     -0.89770871    -1.62806099    -0.11239104
H     -2.19263962    -1.34358976    -1.12117705
O      0.75677878    -2.25623236     0.26947636
H      1.31517167    -1.39188354     0.02472972
H      0.70821380    -2.40025318     1.03665308
15
water clusters train frame=776
O      2.37072134     0.09755026     0.19053721
H      1.63052746     0.73570385     0.03687565
H      2.43877700    -0.14382904     1.08498439
O      0.61478536     2.21511182    -0.12880849
H     -0.20710798     1.99372440    -0.09235203
H      0.85465312     2.24663181    -1.00889549
O     -1.76225026     1.28634225     0.00772854
H     -1.99008852     0.40251058     0.06672773
H     -1.82096763     1.63185805     1.13024571
O     -1.75491364    -1.42843289    -0.18936909
H     -1.04321629    -1.65768454    -0.04197413
H     -2.19059530    -1.36157726    -1.17866249
O      0.65810832    -2.26645796     0.23334868
H      1.31022790    -1.40477554     0.09163988
H      0.61308143    -2.28624946     1.10693808
15
water clusters train frame=777
O      2.28363111    -0.04143084     0.12238072
H      1.78668521     0.78948990     0.12709881
H      2.43151557    -0.10880401     1.12088614
O      0.71365020     2.27917612    -0.08522259
H     -0.18466866     1.89982988    -0.13946555
H      0.86769133     2.26490074    -1.14977430
O     -1.85124615     1.33791852     0.14983148
H     -1.86423363     0.42411821     0.06442435
H     -1.86481940     1.51688388     1.06779431
O     -1.89834600    -1.34986892    -0.18853504
H     -0.90947796    -1.63445195    -0.06404041
H     -2.04200770    -1.35978311    -1.17011193
O      0.67071226    -2.27175554     0.19271144
H      1.28666875    -1.45574459     0.20211943
H      0.57303252    -2.37946788     1.02640298
15
water clusters train frame=778
O      2.27667266     0.07304623     0.19226682
H      1.82305092     0.74260108     0.08874799
H      2.41161908    -0.19710429     1.09176198
O      0.68524646     2.18679338    -0.15164428
H     -0.24746264     2.00247538    -0.17637103
H      0.87491130     2.30904908    -1.09363136
O     -1.94808853     1.36064014     0.07547707
H     -1.98938529     0.51038613    -0.02328776
H     -1.84736488     1.54943437     1.17496171
O     -1.89348178    -1.45449191    -0.20570056
H     -1.08935549    -1.63490750    -0.07348296
H     -2.09910786    -1.27297786    -1.11710931
O      0.75707940    -2.17696067     0.13405058
H      1.23812190    -1.54532563     0.09222567
H      0.56152485    -2.37758595     1.00870192
15
water clusters train frame=779
O      2.38671265    -0.08206771     0.16657307
H      1.75196633     0.94660539     0.16295355
H      2.46458463    -0.12585339     1.02989457
O      0.84254015     2.22845856    -0.18406296
H     -0.10874972     1.96577071     0.00845419
H      0.97338883     2.31314291    -1.04852975
O     -1.77044785     1.34125748     0.09449319
H     -1.83197916     0.39945733     0.13852983
H     -1.98540372     1.39497946     1.05155204
O     -1.95920890    -1.38683552    -0.12761023
H     -0.96587462    -1.69560585    -0.15647400
H     -2.15419947    -1.23923848    -1.17380146
O      0.64623371    -2.15309297     0.03522863
H      1.40173203    -1.37014590     0.20043302
H      0.69717919    -2.54652454     1.18994429
15
water clusters train frame=780
O      2.29092965     0.00396589     0.17782387
H      1.78609299     0.76304343     0.07136230
H      2.51307830    -0.16363533     1.07615683
O      0.76694278     2.20779909    -0.19228334
H     -0.15183687     1.94489799    -0.10155459
H      0.86539023     2.24324199    -0.98071843
O     -1.88493584     1.34030751     0.14888828
H     -1.86560842     0.44221291     0.12814597
H     -1.99655168     1.56466595     1.11020485
O     -1.87719299    -1.37468235    -0.16238976
H     -1.01859996    -1.71349341    -0.11672310
H     -2.12382258    -1.31184927    -1.11976519
O      0.73440980    -2.23974973     0.19256696
H      1.34283603    -1.45556925     0.10740934
H      0.63373215    -2.40150119     1.03666984
15
water clusters train frame=781
O      2.30493086     0.02179066     0.03720374
H      1.69347583     0.78365577     0.10083365
H      2.46387798    -0.09734952     1.14899498
O      0.78958967     2.16338779    -0.12116484
H     -0.29493405     1.87927099    -0.10679685
H      0.96392891     2.25949689    -1.04736668
O     -1.90117566     1.37121911     0.26441049
H     -1.91977595     0.38420253     0.01557898
H     -1.89054986     1.63537718     1.06337919
O     -1.88346888    -1.34859442    -0.21084588
H     -1.00325294    -1.65804076    -0.04412190
H     -2.04352175    -1.20942862    -1.16884004
O      0.70490589    -2.20929412     0.11070488
H      1.19286014    -1.49049066     0.13424560
H      0.62314645    -2.45460984     1.05251421
15
water clusters train frame=782
O      2.27858960    -0.00649724     0.10553472
H      1.92369241     0.67034606     0.01554656
H      2.41127144    -0.08515388     1.08879221
O      0.75747882     2.25646585     0.00118020
H     -0.07789262     1.95690945    -0.19080445
H      0.90699186     2.22863156    -1.08547546
O     -1.88207662     1.31068624     0.24564254
H     -1.94743623     0.35051629    -0.00595432
H     -1.98826484     1.61268177     1.05813485
O     -1.82361153    -1.50584276    -0.09792925
H     -0.98182030    -1.68140096     0.00997560
H     -1.97967092    -1.33657114    -0.96062501
O      0.72405926    -2.15932639     0.12927777
H      1.27517301    -1.41612661     0.09368862
H      0.65220531    -2.25382408     1.11106235
15
water clusters train frame=783
O      2.39081394    -0.06281738     0.15500413
H      1.80029674     0.76995549     0.07830507
H      2.46867535    -0.18369684     1.11298332
O      0.74231694     2.29652368    -0.25135267
H     -0.17566235     1.95320561    -0.09107212
H      0.88652032     2.33801274    -1.01776680
O     -1.99082753     1.39639149     0.14675716
H     -1.92852270     0.47169792     0.08593942
H     -1.89668683     1.59490277     1.06347238
O     -1.91859874    -1.37417407    -0.08907666
H     -0.95432290    -1.75040553    -0.15810983
H     -2.09645255    -1.39996453    -1.09430781
O      0.73639970    -2.25704714     0.11599931
H      1.36628174    -1.38054306     0.08432112
H      0.65302755    -2.41982911     1.05455198
15
water clusters train frame=784
O      2.48134549     0.05220259     0.21430583
H      1.67366980     0.71746126    -0.02729567
H      2.35358493    -0.06480326     1.12778925
O      0.66095085     2.10245278    -0.10485464
H     -0.26952868     1.94815519    -0.08992848
H      0.89704755     2.28277836    -1.13594227
O     -1.93482982     1.27267722     0.20984923
H     -1.95591477     0.48012471     0.18165710
H     -1.92054553     1.55516931     1.10688193
O     -1.90791445    -1.43247173    -0.17736635
H     -0.95849454    -1.75750486    -0.14111291
H     -1.98623048    -1.32251085    -1.09102157
O      0.74086547    -2.20723212     0.15513037
H      1.34051688    -1.38515199     0.00123748
H      0.61155390    -2.43155757     1.10843793
15
water clusters train frame=785
O      2.27036319     0.02736467    -0.03006558
H      1.79567915     0.79649023    -0.03349311
H      2.39549334    -0.19822519     1.10592253
O      0.72501345     2.26368340    -0.14470215
H     -0.10372827     1.89941804    -0.11038834
H      1.01307012     2.12313091    -1.04194036
O     -1.99748758     1.52365825     0.14195237
H     -1.84898628     0.49414584     0.20569619
H     -1.85420437     1.67762940     1.09006401
O     -1.91402777    -1.25666830    -0.05334196
H     -0.95672177    -1.82945396    -0.25758267
H     -1.98881270    -1.22278672    -1.22219262
O      0.82186013    -2.40950289     0.30779435
H      1.27711417    -1.38175319     0.06306112
H      0.61870300    -2.43613663     1.07024099
15
water clusters train frame=786
O      2.37043955    -0.03801086     0.15525201
H      1.88044493     0.75774564     0.12275685
H      2.41553625    -0.18113239     1.09434027
O      0.72675866     2.22897251    -0.12267668
H     -0.16597525     1.91891408    -0.11502249
H      0.91092899     2.25209930    -1.06089635
O     -1.87165531     1.39137690     0.18582539
H     -1.93125701     0.41086305     0.07106529
H     -1.83495632     1.53981061     1.11268138
O     -1.88407476    -1.42162459    -0.14364133
H     -0.94499769    -1.72512986    -0.03716001
H     -2.04496034    -1.26223152    -1.05684374
O      0.70552173    -2.19398962     0.10410936
H      1.25435068    -1.47153708     0.10942916
H      0.54104600    -2.36249353     1.14136632
15
water clusters train frame=787
O      2.33001288    -0.04844772     0.24574152
H      1.80892984     0.76904191     0.02097125
H      2.43094256    -0.16524425     1.13103285
O      0.76477571     2.36403781    -0.18734827
H     -0.23599757     1.91204093    -0.14474734
H      0.94131985     2.27173680    -1.02040100
O     -1.88972271     1.40239478     0.15791951
H     -1.89318085     0.33620185     0.14166525
H     -1.85109143     1.47234043     1.17184966
O     -1.84113635    -1.46121996    -0.20003618
H     -0.91962254    -1.70174252    -0.16266631
H     -2.08388405    -1.40068699    -1.19519686
O      0.73252850    -2.24067232     0.27974912
H      1.41232110    -1.42546651     0.08526168
H      0.63894532    -2.40972157     1.10104943
15
water clusters train frame=788
O      2.25380677    -0.15204119     0.21142181
H      1.87427373     0.84728849     0.17009826
H      2.48871554    -0.31647743     1.00709226
O      0.85417974     2.35657534    -0.19410390
H     -0.21823616     1.94562458    -0.16477591
H      0.85925862     2.29823858    -1.09745557
O     -1.86462455     1.36253181     0.29293942
H     -1.78541078     0.49910603     0.16692182
H     -1.90154299     1.59660010     1.12003029
O     -2.02999963    -1.24072979    -0.07414132
H     -0.98939639    -1.56798337    -0.01540220
H     -2.03274268    -1.34413916    -1.12631809
O      0.65236283    -2.31672617     0.22029360
H      1.21397953    -1.51146522     0.00446086
H      0.60316392    -2.32041217     1.02916286
15
water clusters train frame=789
O      2.23475430    -0.00782518     0.20735906
H      1.78833978     0.80708061     0.05222566
H      2.43332442    -0.21349411     1.08794258
O      0.63364250     2.20169838    -0.17459168
H     -0.13508936     1.95878236    -0.05839469
H      0.91294884     2.24880106    -1.17287915
O     -1.87353371     1.39529782     0.13531908
H     -1.93444693     0.41128618     0.04936246
H     -1.92743985     1.63058005     1.14046624
O     -1.96733943    -1.42815923    -0.16742347
H     -0.98840315    -1.69032225    -0.16788843
H     -2.10005869    -1.33997622    -1.11333493
O      0.66954892    -2.28994408     0.17198662
H      1.29518716    -1.38770532     0.05218098
H      0.60518401    -2.42646041     1.11892702
15
water clusters train frame=790
O      2.26115295     0.15610306     0.23792286
H      1.76451527     0.72727966     0.06345774
H      2.41270403    -0.29627715     1.10398555
O      0.62411652     2.24938880    -0.17235714
H     -0.18309663     1.84949772    -0.08082511
H      0.88032911     2.32768255    -1.12735898
O     -1.91380531     1.38847881     0.08367880
H     -2.01934050     0.46403705     0.10484372
H     -1.95966315     1.52974959     1.14273406
O     -1.86009481    -1.34408276    -0.20942973
H     -0.97721481    -1.67643170    -0.08608129
H     -2.08325748    -1.35506156    -1.14953042
O      0.79288127    -2.15126981     0.08628306
H      1.34084315    -1.55580291     0.19457565
H      0.54048904    -2.34364650     1.20672949
15
water clusters train frame=791
O      2.37790187     0.07024665     0.17923128
H      1.78959431     0.76520538     0.29706166
H      2.38423129    -0.13804623     1.00518678
O      0.71396981     2.04462352    -0.15252114
H     -0.13021748     2.02268774    -0.05385463
H      0.89153120     2.31961404    -1.03653969
O     -1.85473669     1.43620932     0.25783754
H     -1.86102773     0.53020480     0.21894225
H     -2.03689095     1.66301592     1.06448521
O     -2.11731828    -1.18992776    -0.12058381
H     -0.99990002    -1.56601145    -0.04346560
H     -1.90079019    -1.42364899    -1.13726255
O      0.66658302    -2.33882174     0.10686430
H      1.28743726    -1.38803600     0.20069520
H      0.45587502    -2.42719304     0.95744033
15
water clusters train frame=792
O      2.29586498    -0.09352204     0.20292925
H      1.73753643     0.78295980     0.04706169
H      2.39987329    -0.17112590     1.12125389
O      0.68686887     2.28036914    -0.11824873
H     -0.20309627     2.00966493    -0.11920365
H      0.92341061     2.32900434    -1.15547372
O     -1.87614810     1.37012999     0.10543171
H     -1.88733989     0.37105110     0.14516363
H     -1.92896786     1.53299571     1.07606764
O     -1.91610539    -1.29306567    -0.13965274
H     -0.97461476    -1.64539685    -0.10648394
H     -2.04989999    -1.32933820    -0.96793455
O      0.71878684    -2.27172524     0.15096912
H      1.29219804    -1.49406941     0.17257897
H      0.58387776    -2.42656549     1.10649384
15
water clusters train frame=793
O      2.39707554     0.10369581     0.16789995
H      1.76054552     0.68703278     0.18415384
H      2.38614937    -0.11306625     1.04378620
O      0.77202943     2.30368885    -0.20067134
H     -0.27877875     1.77995528    -0.15331264
H      0.97736862     2.31455696    -1.03676829
O     -1.92436134     1.31975258     0.16600237
H     -1.87762817     0.35365414     0.13264316
H     -1.81866504     1.61340667     1.11908490
O     -1.99896465    -1.35549209    -0.15147412
H     -1.00995158    -1.75982545    -0.15639511
H     -2.06052682    -1.18447677    -1.02672901
O      0.73830629    -2.16088453     0.17193447
H      1.32358946    -1.45584994     0.09934994
H      0.55022845    -2.39719687     1.09119439
15
water clusters train frame=794
O      2.36716798    -0.07800812     0.14645158
H      1.79051949     0.77426795     0.08699501
H      2.43356124    -0.30640016     1.17809505
O      0.72407308     2.21633818    -0.24891511
H     -0.21630360     1.82327555    -0.05478962
H      0.87353672     2.28963460    -1.14374899
O     -1.94533409     1.33412710     0.12098155
H     -1.86735941     0.43435936     0.06074205
H     -1.93928215     1.62406879     1.03753007
O     -1.79202374    -1.41560144    -0.07162664
H     -0.76550340    -1.79105914    -0.01045115
H     -2.04289643    -1.35902561    -1.17632684
O      0.67750484    -2.16949647    -0.01452303
H      1.31930734    -1.53540045     0.02463058
H      0.57443514    -2.40261720     1.06919098
15
water clusters train frame=795
O      2.33657839    -0.04684670     0.19342327
H      1.82855324     0.83628588     0.10205694
H      2.48649084    -0.14915439     1.05695087
O      0.75673611     2.25019613    -0.15206615
H     -0.12461029     1.93324642    -0.15808714
H      0.90502696     2.27444687    -1.11005159
O     -1.88813601     1.40580315     0.17902710
H     -1.93932113     0.41635682     0.08686081
H     -1.91378258     1.50005387     1.03674213
O     -1.94913387    -1.33801626    -0.17133432
H     -0.90746377    -1.70634373    -0.13659769
H     -2.12683593    -1.26212250    -1.12669144
O      0.68611293    -2.30751387     0.19785608
H      1.25524646    -1.42189837     0.03929801
H      0.62715860    -2.38587606     1.09834531
15
water clusters train frame=796
O      2.26097694    -0.00061336     0.05746363
H      1.77951258     0.80337858     0.13367097
H      2.51799855    -0.09181401     0.96375866
O      0.67971323     2.06805803    -0.01026197
H     -0.10246879     1.95553894    -0.04335614
H      0.90148466     2.24418614    -1.08008220
O     -2.02927500     1.30461261     0.09412772
H     -1.90141121     0.41371122     0.03873429
H     -1.84039172     1.60706725     1.13394758
O     -1.89562483    -1.43578412    -0.15538497
H     -1.01184137    -1.69922137    -0.07029524
H     -2.00492674    -1.32249052    -1.13474823
O      0.73966122    -2.18028998     0.21143423
H      1.26431513    -1.46208845     0.15723831
H      0.62642106    -2.29336599     1.17180685
15
water clusters train frame=797
O      2.34841290     0.12737814     0.09358024
H      1.86857678     0.80999314     0.16904678
H      2.43715000    -0.07640299     1.00259281
O      0.63911687     2.21948544    -0.20188771
H     -0.08770354     1.93339270    -0.05940452
H      0.73668015     2.39004247    -1.16818088
O     -1.86170114     1.48345381     0.20686170
H     -1.76390763     0.51750467     0.18784785
H     -1.79095199     1.60698845     1.17425602
O     -1.99346963    -1.44150500    -0.18971870
H     -0.86719826    -1.58670583    -0.05603900
H     -2.07436898    -1.39494739    -1.03493754
O      0.68257983    -2.26168074     0.17710336
H      1.30399485    -1.59196158     0.01113929
H      0.59099211    -2.39285693     1.24931550
15
water clusters train frame=798
O      2.35504463     0.07995808     0.08702210
H      1.81850287     0.81245045     0.02941847
H      2.42763708    -0.11387383     1.01752796
O      0.73621887     2.20271991    -0.14525412
H     -0.18926940     1.90357642    -0.09569610
H      0.89160510     2.27460061    -1.10840211
O     -1.91891932     1.42032973     0.20912755
H     -1.97717949     0.40924754     0.06148096
H     -1.81876487     1.55932135     1.09343579
O     -1.91697111    -1.34544572    -0.19267268
H     -0.95793432    -1.65607846    -0.15988531
H     -2.17456884    -1.31986860    -1.08307578
O      0.68655112    -2.23414854     0.04770109
H      1.32758533    -1.43657237     0.15918844
H      0.63509812    -2.39848542     1.07435297
15
water clusters train frame=799
O      2.40385502    -0.09284213     0.22514821
H      1.74251168     0.80492036    -0.00731204
H      2.45197994    -0.06397066     1.07575164
O      0.69590342     2.18460548    -0.16001961
H     -0.22772255     1.97539501    -0.08602885
H      0.95549454     2.21582964    -1.04201804
O     -1.78904654     1.44838403     0.09969695
H     -1.87884101     0.50313587     0.01709026
H     -1.94231251     1.52637713     1.14782126
O     -1.89249386    -1.38334116    -0.17561928
H     -0.96173892    -1.73190767    -0.06467925
H     -1.96952037    -1.28726846    -1.01870430
O      0.69775811    -2.23744553     0.10386011
H      1.20554726    -1.44406145     0.08214559
H      0.57092143    -2.48216799     1.07827132
15
water clusters train frame=800
O      2.36366898     0.05183522     0.11966093
H      1.80412125     0.79361612    -0.06895512
H      2.53714916    -0.13683378     0.98738806
O      0.82107997     2.22264652    -0.13712657
H     -0.27913438     1.93359189    -0.18634838
H      0.90811086     2.35582635    -1.09661400
O     -2.01025695     1.34388464     0.14721357
H     -1.82130053     0.30204452    -0.02964656
H     -1.80525535     1.52076529     0.91950740
O     -1.80512690    -1.33557858    -0.20776626
H     -0.90511715    -1.42916620    -0.07829822
H     -2.03748315    -1.18270742    -1.27956310
O      0.79976777    -2.21726241     0.10799772
H      1.27233894    -1.53854929     0.15649939
H      0.55125601    -2.36228436     1.02326879
15
water clusters train frame=801
O      2.33599159     0.00893132     0.22282831
H      1.78164050     0.75862590     0.11971178
H      2.42645323    -0.12477586     1.12895860
O      0.73677587     2.25631664    -0.11755004
H     -0.17505049     1.89601331    -0.11235016
H      0.89144834     2.28905179    -1.07835861
O     -1.94261963     1.40071868     0.18254048
H     -1.87009335     0.41873656     0.09871873
H     -1.89806112     1.63017839     1.05278832
O     -1.84270780    -1.35443721    -0.06299989
H     -0.99284034    -1.64776303    -0.10413026
H     -2.06619185    -1.21895489    -1.11274653
O      0.77891141    -2.22380524     0.11605177
H      1.24014409    -1.44832774     0.03849770
H      0.66778217    -2.43532753     1.15824630
15
water clusters train frame=802
O      2.41263011     0.08103870     0.09403878
H      1.77121123     0.75557785     0.05123945
H      2.58197143    -0.09926719     1.12311900
O      0.67533745     2.27627221    -0.06613141
H     -0.12175421     1.90243421    -0.03351050
H      0.87604090     2.30542111    -1.04771211
O     -1.85932693     1.43744889     0.13638382
H     -1.88885390     0.47500722     0.09176104
H     -1.92508362     1.67723880     1.01831836
O     -1.87780456    -1.38376732    -0.17171586
H     -0.96493688    -1.70356167    -0.14264625
H     -2.17865913    -1.30404346    -1.13632436
O      0.69228058    -2.20420431     0.16443237
H      1.27005993    -1.39453919     0.17178567
H      0.63010157    -2.36731977     1.18785744
15
water clusters train frame=803
O      2.32506951    -0.03010429     0.02572479
H      1.86586939     0.74393577     0.07837219
H      2.27456767    -0.07366229     1.00574884
O      0.80394558     2.32323134    -0.21404950
H     -0.17121397     1.99829924    -0.17339976
H      0.89510584     2.18368828    -1.16114662
O     -1.92831436     1.43745588     0.13584470
H     -1.94865650     0.30648535     0.14975948
H     -1.94258633     1.55433799     1.26618682
O     -1.87959005    -1.30960262    -0.13977099
H     -1.00848282    -1.66393920    -0.20551807
H     -2.28849241    -1.31962998    -0.95769821
O      0.78262490    -2.25346899     0.28831001
H      1.43820479    -1.40386863     0.11325844
H      0.76098524    -2.47473037     1.11400187
15
water clusters train frame=804
O      2.31280153    -0.02332102     0.10509630
H      1.81539660     0.78844338     0.13299767
H      2.47257657    -0.15066763     1.06986699
O      0.71913575     2.24501305    -0.18775422
H     -0.16582916     1.94168453    -0.08969798
H      0.85869465     2.29067410    -1.12989490
O     -1.94614488     1.37810793     0.13374278
H     -1.88346560     0.41114762     0.07512867
H     -1.87812755     1.53363426     1.13836681
O     -1.93649851    -1.40944210    -0.23580683
H     -1.03366292    -1.61745722    -0.15076137
H     -2.10485982    -1.29273608    -1.11787136
O      0.76618687    -2.18999340     0.12218687
H      1.29223807    -1.44716292     0.13618605
H      0.67137128    -2.35576474     1.05885696
15
water clusters train frame=805
O      2.23696522     0.02721183     0.18277949
H      1.75882307     0.76679916     0.22439564
H      2.50673973    -0.10020870     1.16087708
O      0.84230550     2.27605246    -0.16904190
H     -0.22167471     1.94313537    -0.25986907
H      0.91443154     2.20031853    -1.13090818
O     -1.84338883     1.41380085     0.18694606
H     -1.95392408     0.43981080     0.19308057
H     -1.93660700     1.62329797     1.08611741
O     -1.84945174    -1.32187845    -0.04472882
H     -1.06269415    -1.72408291    -0.07863012
H     -2.08601682    -1.35803146    -1.05040181
O      0.65872025    -2.26542321     0.10307497
H      1.25145914    -1.45135235     0.09053184
H      0.80419684    -2.41138728     1.08663562
15
water clusters train frame=806
O      2.35929783     0.16139257     0.10053042
H      1.61604650     0.61272930     0.08133532
H      2.34840439    -0.19242217     1.10647301
O      0.71916747     2.10724277    -0.24229496
H     -0.27743795     1.84093288    -0.11630398
H      0.94998259     2.35704761    -1.15247762
O     -1.93993741     1.33789488    -0.06636294
H     -1.80950096     0.52825977     0.03987940
H     -1.78751827     1.51062126     0.99474893
O     -1.80063241    -1.37864958    -0.08772115
H     -1.08151725    -1.71567086    -0.11377654
H     -2.21393902    -1.43585126    -1.19076244
O      0.67058327    -2.21161862     0.11902173
H      1.35740476    -1.45535659     0.18156946
H      0.56400163    -2.33543152     1.10598859
15
water clusters train frame=807
O      2.33326402    -0.00106302     0.16020091
H      1.72215558     0.75835832     0.07058332
H      2.44180525    -0.13486636     1.13531176
O      0.70459625     2.21119264    -0.09130729
H     -0.21751003     1.98504561    -0.04136643
H      0.89640415     2.28963945    -1.00325322
O     -1.89803571     1.37233916     0.16253551
H     -1.93343324     0.37992952     0.09303926
H     -1.93004822     1.58999377     1.08662074
O     -1.84812220    -1.36243111    -0.17166221
H     -0.94616219    -1.62445416    -0.13315971
H     -2.10053720    -1.32102001    -1.09196409
O      0.70564443    -2.20571222     0.14599571
H      1.32521937    -1.45373164     0.12091289
H      0.62196934    -2.36507766     1.12459425
15
water clusters train frame=808
O      2.38315794    -0.01084509     0.17005142
H      1.83075212     0.63145898     0.10090994
H      2.45646958    -0.19654952     1.14967912
O      0.61793238     2.27189185    -0.20679939
H     -0.15723060     1.97174174    -0.09172225
H      0.91840641     2.29855451    -1.04948665
O     -1.89459804     1.38604956     0.16957181
H     -1.85725712     0.39461064     0.08841685
H     -1.81936107     1.62528416     1.13057906
O     -1.75470872    -1.32608806    -0.19597033
H     -1.06323849    -1.68566677    -0.13754835
H     -2.16656044    -1.28744880    -0.99545667
O      0.74474278    -2.19308875     0.14146500
H      1.30362405    -1.38923894     0.03284049
H      0.61660641    -2.35291910     1.02571646
15
water clusters train frame=809
O      2.20128485     0.11720294     0.08397504
H      1.71116269     0.74433152     0.21100562
H      2.36949575    -0.07571544     1.11280734
O      0.75312269     2.16095417    -0.15637407
H     -0.22443964     1.82702391    -0.14654828
H      0.85994744     2.30181464    -1.13827766
O     -1.87912885     1.49936975     0.14017674
H     -1.85010961     0.45015991     0.06055779
H     -1.87219562     1.60380916     1.11282989
O     -1.89482937    -1.32535631    -0.17256626
H     -1.01541585    -1.76263563    -0.19610052
H     -2.06913877    -1.41050779    -1.21063519
O      0.63557867    -2.20145651     0.10317571
H      1.29271881    -1.43013800     0.07764062
H      0.65250948    -2.47349488     1.08621357
15
water clusters train frame=810
O      2.37908244     0.00635855     0.21364470
H      1.75229565     0.79381491     0.10147195
H      2.41833499    -0.15909811     1.08072104
O      0.68460044     2.23279586    -0.13210283
H     -0.20962092     1.98391852    -0.15775040
H      0.90320862     2.32976058    -1.13772181
O     -1.86376066     1.35353271     0.15500761
H     -1.96952095     0.42024311     0.06857848
H     -1.92831018     1.57259505     1.09323668
O     -1.92294082    -1.42558044    -0.15589356
H     -0.97734097    -1.69448444    -0.11624033
H     -2.12648479    -1.29759932    -1.10467138
O      0.69895603    -2.22061214     0.17650333
H      1.27133525    -1.50253417     0.07516754
H      0.58223230    -2.40158922     1.06882008
15
water clusters train frame=811
O      2.40172187     0.07768179     0.06594087
H      1.85204048     0.71865651     0.16479310
H      2.63745687    -0.23851290     1.08144298
O      0.63480600     2.20177662    -0.25150992
H     -0.22010158     1.91032079    -0.06469203
H      0.95486161     2.31711245    -0.97469667
O     -1.88794780     1.32202407     0.12467990
H     -1.84172082     0.31584949     0.05376260
H     -1.92782956     1.55568262     1.07291921
O     -1.90678845    -1.40946437    -0.12292861
H     -1.02026822    -1.72284117    -0.08575512
H     -2.15893948    -1.30759400    -1.00789746
O      0.72579832    -2.17117500     0.23197351
H      1.24578053    -1.40709117     0.05375962
H      0.54488144    -2.46385180     1.11277304
15
water clusters train frame=812
O      2.52038627    -0.00151464     0.21396898
H      1.80805946     0.86874660    -0.09554602
H      2.50980935    -0.12253555     1.06702969
O      0.55220590     2.29381054    -0.06637868
H     -0.15546136     1.97383539    -0.23091852
H      0.88766303     2.42801651    -1.05605627
O     -1.89809872     1.30689725     0.27641953
H     -1.81545593     0.37934556     0.04390941
H     -1.86118183     1.49276104     1.17955761
O     -1.88953118    -1.37725618    -0.25930546
H     -0.96025447    -1.66217102    -0.13191968
H     -2.23785352    -1.43090139    -1.14401865
O      0.63553570    -2.15651984     0.15364359
H      1.32079565    -1.44746002     0.11706655
H      0.61371572    -2.38614412     0.99808631
15
water clusters train frame=813
O      2.40327915     0.03440057     0.13536870
H      1.70765786     0.77420481     0.12672793
H      2.44472771    -0.17038817     1.10618822
O      0.73166064     2.30095346    -0.14255402
H     -0.14312140     1.94306510    -0.16831128
H      0.87928912     2.31362907    -1.09281628
O     -1.95627887     1.30655729     0.13641580
H     -1.94158923     0.48468128     0.10267316
H     -1.93110470     1.55085629     1.05184915
O     -1.91237907    -1.38735529    -0.21447037
H     -0.92613162    -1.69359704    -0.10805317
H     -2.09406271    -1.35415452    -1.05554882
O      0.72257069    -2.21834525     0.15976889
H      1.25077375    -1.50864512     0.08131662
H      0.59591547    -2.45009372     1.00879903
15
water clusters train frame=814
O      2.29807669     0.02751978     0.20673857
H      1.83869740     0.72757480     0.00039711
H      2.46756465    -0.14719422     1.03929821
O      0.65435799     2.20215638    -0.14958264
H     -0.16952476     1.89818308    -0.02864596
H      0.92292344     2.35180444    -1.14719321
O     -1.91198017     1.37397533     0.07848791
H     -1.90556716     0.41677629     0.13819948
H     -1.84868200     1.59099822     1.10828904
O     -1.78503057    -1.34213150    -0.25803120
H     -0.98594860    -1.75854322    -0.06112971
H     -2.09070438    -1.29207223    -1.09001709
O      0.78143048    -2.24900215     0.15321939
H      1.39879889    -1.39410753     0.10446995
H      0.63336127    -2.47139582     0.99155874
15
water clusters train frame=815
O      2.31315114     0.00170921     0.21670471
H      1.71377147     0.72703717    -0.00982867
H      2.39566508    -0.12509824     1.12596340
O      0.76367202     2.12185716     0.04637237
H     -0.14662971     1.91938638    -0.12522846
H      0.86081513     2.24215670    -1.14453925
O     -1.86586041     1.36128103     0.19405775
H     -1.88169025     0.39602575    -0.01057289
H     -1.90686464     1.61541531     1.01019492
O     -1.82237910    -1.42190878    -0.20138732
H     -0.94817381    -1.70637289    -0.13672788
H     -1.99202002    -1.43417588    -1.07527286
O      0.87585022    -2.21437726     0.09285614
H      1.29299970    -1.54291982     0.10737274
H      0.75903517    -2.31175603     1.13790131
15
water clusters train frame=816
O      2.32823016     0.00611157     0.21245530
H      1.81139352     0.74899094     0.05682330
H      2.44299888    -0.22016121     1.09631979
O      0.74655543     2.13838323    -0.13735365
H     -0.17940679     1.84369321    -0.02727543
H      0.90880108     2.30287580    -1.10331393
O     -1.91504916     1.39461664     0.12243535
H     -1.92591769     0.35846850     0.09708849
H     -1.94349606     1.60049055     1.09485834
O     -1.81755086    -1.39155361    -0.13188090
H     -0.96597889    -1.61991038    -0.13852562
H     -2.04809955    -1.32164307    -1.09404481
O      0.76578957    -2.20601406     0.14633968
H      1.26541935    -1.43548402     0.13425210
H      0.60205214    -2.31250103     1.15807561
15
water clusters train frame=817
O      2.30550267     0.06820011     0.14510968
H      1.75366907     0.86919662     0.07810020
H      2.52834477    -0.21545430     1.20085261
O      0.70970617     2.17015336    -0.21380708
H     -0.08728528     2.00616121    -0.12557294
H      0.92608890     2.22166268    -1.13040168
O     -1.80154620     1.25255538     0.23399353
H     -1.94566464     0.43288908     0.08644393
H     -2.00081200     1.65437286     1.14587379
O     -2.00565733    -1.39450702    -0.23929331
H     -1.01822337    -1.69594592    -0.11596551
H     -2.01026145    -1.38028089    -1.08504274
O      0.63403351    -2.33534237     0.21719826
H      1.17477090    -1.37624334     0.07579881
H      0.64433321    -2.42637712     1.10504527
15
water clusters train frame=818
O      2.38674721     0.00227855     0.08856946
H      1.79553996     0.60402849    -0.03803922
H      2.43721074    -0.20092476     1.10450944
O      0.76110699     2.14315369    -0.20403217
H     -0.22233318     2.01876324    -0.01231549
H      0.91654220     2.40469455    -1.13987658
O     -1.91818803     1.33517882     0.14579435
H     -1.98242345     0.38951286    -0.01121355
H     -1.97659359     1.59645918     1.21805691
O     -1.84342732    -1.43019767    -0.15164705
H     -1.00302521    -1.74964379     0.02672117
H     -2.02224852    -1.28861030    -1.09001954
O      0.77920077    -2.32468349     0.08347856
H      1.27108857    -1.45488897     0.03985869
H      0.75456456    -2.29771797     1.06764150
15
water clusters train frame=819
O      2.40548644     0.00740499     0.09696883
H      1.80061959     0.77071472     0.08419355
H      2.39783724    -0.14558448     1.13399602
O      0.71793428     2.23135862    -0.12029394
H     -0.23962544     1.98047272    -0.08665542
H      0.93976242     2.29321435    -1.07411463
O     -1.89489976     1.32905751     0.15654971
H     -1.84144726     0.44458078     0.07700011
H     -1.90263538     1.50057305     1.11195961
O     -1.95789455    -1.30812936    -0.12562718
H     -1.00564291    -1.72690229    -0.06264088
H     -2.05248997    -1.36578659    -1.13887374
O      0.73848039    -2.29889263     0.13999193
H      1.34618985    -1.40607673     0.06556927
H      0.63363794    -2.29748947     1.05931079
15
water clusters train frame=820
O      2.47829747    -0.04209478     0.23786527
H      1.63732828     0.77617404     0.09903402
H      2.37181242    -0.12973872     1.05646195
O      0.74096122     2.18810666    -0.15546078
H     -0.17327808     2.03846804    -0.13683252
H      0.88210841     2.34533206    -1.07302148
O     -1.87630644     1.44934996     0.05229127
H     -1.83684778     0.38887855     0.14667852
H     -1.87731362     1.60461358     1.05129379
O     -1.96265497    -1.36403541    -0.06199365
H     -0.93615952    -1.71595961    -0.13646890
H     -2.03017192    -1.29847732    -1.04826980
O      0.67278016    -2.24485416     0.20201372
H      1.26372492    -1.58112740     0.10565995
H      0.58868436    -2.40966989     1.18002695
15
water clusters train frame=821
O      2.55305187    -0.01937138     0.29024334
H      1.82756040     0.74928987     0.16925286
H      2.38365884    -0.21333632     1.03740914
O      0.69699456     2.23287365    -0.16306550
H     -0.20620962     1.94639624    -0.17506380
H      0.89637488     2.24086924    -1.11367695
O     -1.96803375     1.41988041     0.07060516
H     -1.97804492     0.51906860     0.04828453
H     -1.92777321     1.64206956     1.12873739
O     -1.89438589    -1.44384853    -0.26077705
H     -1.03494252    -1.62483125     0.03399035
H     -2.21964892    -1.32120982    -1.10702088
O      0.74234277    -2.26780377     0.11436265
H      1.42301546    -1.31392021     0.04058721
H      0.70215557    -2.46145238     1.08309144
15
water clusters train frame=822
O      2.35207122    -0.03935575     0.09326245
H      1.79332255     0.80472408     0.08986713
H      2.44741464    -0.12446488     1.11813843
O      0.67542835     2.24877905    -0.11875805
H     -0.16805041     2.00622456     0.00216584
H      0.97700027     2.37797127    -1.06066775
O     -1.91440277     1.37684640     0.11106590
H     -1.90850118     0.42280826     0.13044712
H     -1.91034739     1.47885423     1.17518240
O     -1.95642542    -1.32178938    -0.12231789
H     -0.97728866    -1.58621482    -0.09462247
H     -2.11780143    -1.26106342    -1.01723118
O      0.74649071    -2.18442668     0.20868587
H      1.28342791    -1.44942124     0.11958416
H      0.56032739    -2.39231764     1.05460495
15
water clusters train frame=823
O      2.31015136     0.14189240     0.09679455
H      1.88630578     0.80318608     0.11024465
H      2.42976711    -0.16274773     1.19432314
O      0.76689499     2.18999250    -0.11380772
H     -0.02570384     1.86299637    -0.14184222
H      0.85613069     2.31715798    -1.13561723
O     -1.91794986     1.33931515     0.12258928
H     -1.85456146     0.52823170     0.03898438
H     -1.94258693     1.71336964     0.88762242
O     -1.97877986    -1.39901783    -0.22792578
H     -0.94656621    -1.64687996     0.04473079
H     -2.11273683    -1.32317038    -1.13038542
O      0.73071955    -2.24088754     0.21000148
H      1.31333588    -1.47486389     0.06711498
H      0.59237516    -2.41806756     1.15362897
15
water clusters train frame=824
O      2.34930687     0.03522433     0.29931417
H      1.91971674     0.82126263     0.23513098
H      2.53677818    -0.15368659     1.12956623
O      0.68717168     2.21162318    -0.35632684
H     -0.29415385     1.86328446    -0.00502701
H      1.02737863     2.28794730    -1.15035161
O     -1.99181451     1.37349410     0.13651862
H     -1.90936342     0.48122640     0.24637347
H     -1.88133597     1.53146869     1.01751746
O     -1.85786721    -1.30188757    -0.08377675
H     -0.93419608    -1.77093700    -0.10453282
H     -1.92155952    -1.20951436    -0.92727317
O      0.82117452    -2.22978178     0.11330764
H      1.38642576    -1.47332154     0.10993691
H      0.84510812    -2.47826249     1.05451743
15
water clusters train frame=825
O      2.31290095     0.02033998     0.18958360
H      1.85088316     0.77200791     0.07007601
H      2.49176151    -0.17933236     1.06967072
O      0.66295047     2.22424656    -0.08381246
H     -0.20722940     1.88817236    -0.08261951
H      0.85453021     2.32678268    -1.07508343
O     -1.94054092     1.39945102     0.07192646
H     -1.91700530     0.46499252     0.05384620
H     -1.88676730     1.47719269     0.99004904
O     -1.85943058    -1.31660185    -0.17672655
H     -1.02657012    -1.58563102    -0.12790250
H     -2.05726592    -1.27629859    -1.06869223
O      0.70899578    -2.26400192     0.17556650
H      1.19798493    -1.41895886     0.12421630
H      0.62624819    -2.39997320     1.09733151
15
water clusters train frame=826
O      2.36662596    -0.05862026     0.24501752
H      1.82369821     0.78760948     0.25385215
H      2.53467616    -0.05661989     1.11992541
O      0.81573988     2.21995779    -0.11660324
H     -0.14205955     1.89980129    -0.04742400
H      0.88764912     2.24950503    -1.09286363
O     -1.88061473     1.34497400     0.09391964
H     -1.87831722     0.31692169     0.16658671
H     -1.74560029     1.60984887     1.09044162
O     -1.90343806    -1.46347449    -0.24764202
H     -0.93103117    -1.65945212    -0.06772824
H     -2.00000691    -1.31212036    -1.04229647
O      0.74616385    -2.33743018     0.17917384
H      1.32417153    -1.43949850     0.11511261
H      0.61623016    -2.44762832     1.11108463
15
water clusters train frame=827
O      2.31454403     0.01573723     0.21126848
H      1.95900457     0.74838008     0.05694334
H      2.47050782    -0.15818030     1.08140160
O      0.89460156     2.15944465    -0.14674219
H     -0.15741706     1.88379733    -0.16618912
H      0.87340379     2.29231630    -1.08334206
O     -1.73209461     1.53007774     0.20407067
H     -1.90095650     0.44489255     0.06242443
H     -2.01510823     1.58587701     1.16401940
O     -1.98582926    -1.37795709    -0.19118147
H     -0.81998931    -1.63659152     0.02382661
H     -2.11547276    -1.30248934    -1.17301493
O      0.73085849    -2.31519554     0.18029754
H      1.35502499    -1.52720694    -0.01696949
H      0.67539005    -2.49844918     1.13310501
15
water clusters train frame=828
O      2.35666346    -0.00106622     0.10886423
H      1.82215766     0.82202467     0.05262315
H      2.44026669    -0.18239149     1.03513697
O      0.74900090     2.24201314    -0.12019709
H     -0.20745698     1.97377771    -0.13753301
H      0.91805826     2.27193953    -1.10820114
O     -1.86728637     1.30643568     0.12431341
H     -1.85931427     0.41000342     0.12634415
H     -1.89950281     1.58884169     1.07738624
O     -1.89289192    -1.41420216    -0.17137030
H     -0.97625617    -1.74879780    -0.08522262
H     -2.13046362    -1.32301647    -1.06499830
O      0.73145028    -2.25413973     0.12206163
H      1.23266768    -1.49820391     0.11253534
H      0.64586608    -2.39100616     1.13835902
15
water clusters train frame=829
O      2.40117861     0.05273844     0.15458553
H      1.77641140     0.76904045     0.08795998
H      2.47497896    -0.18782281     1.07478656
O      0.79565597     2.20541601    -0.14181839
H     -0.22021665     1.80891205    -0.06732516
H      0.94204055     2.28862046    -1.14339421
O     -1.89116793     1.44914533     0.12829428
H     -1.91048992     0.40941583     0.00805774
H     -1.97714767     1.53270534     1.02850320
O     -1.85319340    -1.52632079    -0.16960026
H     -0.92359618    -1.74472261    -0.19218494
H     -2.05702590    -1.41243532    -1.07973865
O      0.76502013    -2.28057728    -0.00102427
H      1.29961446    -1.47985381     0.12887149
H      0.61895779    -2.48684273     1.22041169
15
water clusters train frame=830
O      2.30784893    -0.12434205     0.04932008
H      1.68567300     0.77346574     0.08137881
H      2.46386180    -0.09890209     1.07802900
O      0.79614244     2.21862988    -0.18437583
H     -0.23629948     1.99867120    -0.17815741
H      0.94347923     2.20506889    -1.11455082
O     -1.96588436     1.40642555     0.13195510
H     -1.93922434     0.40032152     0.14179176
H     -1.87463259     1.57746848     0.97447134
O     -1.88929238    -1.45414589    -0.01554577
H     -0.90205993    -1.56290217    -0.20133511
H     -2.22723002    -1.42070057    -1.14362377
O      0.83932471    -2.16254783     0.09595536
H      1.35009431    -1.41968627     0.09655047
H      0.70063472    -2.47105295     1.04284420
15
water clusters train frame=831
O      2.29153890    -0.03498681     0.06600551
H      1.80368620     0.77707675     0.14254431
H      2.46416713    -0.19994136     1.07679295
O      0.64795768     2.23092199    -0.20385880
H     -0.20847842     1.90755601    -0.07278667
H      0.96263869     2.22827709    -1.09057140
O     -1.94154684     1.35394982     0.20317838
H     -1.90740533     0.39966885     0.12931003
H     -1.91493159     1.61495917     1.07470860
O     -1.94061184    -1.40386842    -0.08435210
H     -0.99456299    -1.70218808    -0.09098565
H     -2.06196695    -1.30166259    -1.05238225
O      0.77325729    -2.26214924     0.13471600
H      1.26052836    -1.45753526     0.17929461
H      0.66073840    -2.34966081     1.13170313
15
water clusters train frame=832
O      2.32369414     0.08816318     0.17303796
H      1.83944834     0.65815238     0.00887172
H      2.49964837    -0.13650828     1.08834820
O      0.71915011     2.18939005    -0.10504548
H     -0.18866945     1.90809011    -0.03751327
H      0.88344487     2.32667489    -1.02410244
O     -1.91015414     1.36664282     0.14462282
H     -1.98138662     0.39294143     0.11037729
H     -1.90056712     1.56971131     1.07436743
O     -1.98206660    -1.38982778    -0.09537940
H     -1.01397513    -1.52614169    -0.22589510
H     -2.06743947    -1.22094222    -1.16633689
O      0.77899588    -2.21063418     0.13580852
H      1.29872997    -1.49779966     0.17299138
H      0.57254648    -2.41997829     1.11290678
15
water clusters train frame=833
O      2.33473237     0.09471420     0.10951209
H      1.72066474     0.80272461     0.00391996
H      2.50511641    -0.23852180     1.13255134
O      0.78061775     2.23700196    -0.17588399
H     -0.10027069     1.99008354    -0.20612186
H      0.96205727     2.23618922    -0.93533153
O     -1.83426524     1.29025746     0.17655341
H     -2.00249841     0.49195045     0.07950141
H     -1.86675404     1.44855591     1.14723959
O     -1.87081916    -1.37218624    -0.08118275
H     -1.07834159    -1.69159592    -0.12767099
H     -2.09652687    -1.33415195    -1.22905843
O      0.78068814    -2.14035184     0.19358440
H      1.33296615    -1.54663911     0.01300895
H      0.64392675    -2.48279284     1.02670374
15
water clusters train frame=834
O      2.30982275    -0.05358997     0.20862292
H      1.80158626     0.79481202     0.17085992
H      2.42685089    -0.15919390     1.08341900
O      0.79406200     2.25472040    -0.14612242
H     -0.20443352     1.95619113    -0.08358004
H      0.87601788     2.24100837    -1.08245837
O     -1.89764174     1.35674175     0.12296463
H     -1.90205376     0.42456342     0.16381043
H     -1.90799958     1.57137932     1.17432958
O     -1.87473617    -1.40894945    -0.09811786
H     -1.00037442    -1.62836085    -0.10830966
H     -2.08677472    -1.30192386    -1.12183551
O      0.70738391    -2.21422588     0.25229977
H      1.23755710    -1.43803609     0.09015381
H      0.64488728    -2.32076484     1.05979894
15
water clusters train frame=835
O      2.33028395    -0.06030775     0.13474705
H      1.77124830     0.72255411     0.02019598
H      2.38922904    -0.18556599     1.09499463
O      0.77457165     2.27454555    -0.19930182
H     -0.23522119     1.88044696    -0.22075360
H      0.85423380     2.42752425    -1.14873627
O     -1.92737970     1.39206033     0.11463025
H     -1.84820673     0.39749310     0.17144199
H     -1.88237721     1.51590876     1.11294268
O     -1.90111325    -1.46260477    -0.23295174
H     -1.00746882    -1.75908362    -0.10369793
H     -2.02800872    -1.25764086    -1.09326144
O      0.72631972    -2.36673128     0.06895692
H      1.18115388    -1.39485635     0.01329368
H      0.73309336    -2.40570559     1.13524161
15
water clusters train frame=836
O      2.20736858     0.02464307     0.09362165
H      1.81251707     0.66029281     0.14930147
H      2.43930173    -0.19456018     1.07317728
O      0.68057231     2.28187175    -0.14928578
H     -0.14814015     1.89480593    -0.10373250
H      0.90871299     2.13451041    -1.13810579
O     -1.92482217     1.38663003     0.27757528
H     -1.99459944     0.40315807     0.09434750
H     -1.90862631     1.63213622     1.12725917
O     -1.86953564    -1.39059233    -0.10531828
H     -0.97662061    -1.59164637    -0.15553018
H     -1.98767911    -1.31034969    -1.05905469
O      0.79675499    -2.39362308     0.18699396
H      1.33357907    -1.34499073     0.01716298
H      0.57840449    -2.42942578     1.23280484
15
water clusters train frame=837
O      2.26202346     0.02328128     0.07723180
H      1.82788317     0.80476086     0.06184324
H      2.39237653    -0.18591342     1.04492141
O      0.74514690     2.19070833    -0.16556277
H     -0.13337685     1.96357710    -0.20525588
H      0.85207728     2.33608156    -1.07916591
O     -1.90869448     1.36219138     0.14793985
H     -1.88238885     0.33352764     0.12006962
H     -1.86695076     1.59972233     1.12632491
O     -1.90029599    -1.35221723    -0.11700757
H     -0.94202027    -1.67147668    -0.10579603
H     -2.13329589    -1.33662647    -0.99826538
O      0.65009670    -2.27398036     0.25126643
H      1.30233308    -1.42502188     0.05722725
H      0.61785201    -2.43310538     1.13615764
15
water clusters train frame=838
O      2.41271509    -0.04916786     0.17793797
H      1.79914998     0.78253834     0.15139311
H      2.47778799    -0.05556704     1.11205266
O      0.62515606     2.22586665    -0.19300859
H     -0.07826334     1.92611999    -0.10719162
H      0.94097595     2.22044313    -1.07672920
O     -1.85553519     1.43548377     0.19490438
H     -1.86618633     0.46424275     0.13863269
H     -1.92597095     1.56037977     1.20159363
O     -1.85049600    -1.40664868    -0.10549256
H     -1.02035792    -1.65840291    -0.13683005
H     -2.07176369    -1.40865149    -1.15404535
O      0.78473068    -2.34961342     0.16441786
H      1.35806739    -1.42969162     0.07931692
H      0.62588077    -2.38486477     1.14878514
15
water clusters train frame=839
O      2.26452874     0.03118682     0.22209874
H      1.83711976     0.80095771     0.18997393
H      2.64192498    -0.11253452     1.04028510
O      0.77741691     2.31494263    -0.00663028
H     -0.08683239     1.90349173    -0.04867862
H      0.95481903     2.20933533    -1.19327838
O     -1.86715252     1.34585327     0.15256490
H     -1.90415915     0.36492341     0.12057412
H     -1.75487822     1.41912217     1.14172325
O     -2.01358031    -1.32467914    -0.17122070
H     -0.96630918    -1.79024943    -0.01467747
H     -2.09089227    -1.27142056    -1.13623130
O      0.74462349    -2.26484715     0.05955438
H      1.21534734    -1.50994599     0.05295071
H      0.73464450    -2.44113522     1.10218814
15
water clusters train frame=840
O      2.44070742     0.01085531     0.14976704
H      1.83995212     0.72814318     0.12701291
H      2.49689729    -0.21787092     1.08624803
O      0.73864174     2.23773569    -0.16371892
H     -0.19365122     1.88162253    -0.09530519
H      0.85384282     2.23163948    -1.08001836
O     -1.89154288     1.47505565     0.12384353
H     -1.88450424     0.34327858     0.09197146
H     -1.91199658     1.54249929     1.05134525
O     -1.90238479    -1.38926717    -0.16922821
H     -0.96782713    -1.66220030    -0.02477717
H     -2.07717072    -1.36063913    -1.12113903
O      0.72927379    -2.23620805     0.10398582
H      1.35369172    -1.53752533     0.03166578
H      0.64572449    -2.41757598     1.12090922
15
water clusters train frame=841
O      2.33692598     0.03266199     0.17398152
H      1.73598307     0.76091808     0.03552716
H      2.52666296    -0.04416452     1.08185613
O      0.78601699     2.27425594    -0.08957871
H     -0.20632711     1.92482548    -0.06792146
H      0.84593816     2.22011212    -1.01418735
O     -1.86273947     1.38182584     0.20553376
H     -1.94347440     0.37428601     0.15186761
H     -1.90295405     1.58879048     1.18635197
O     -1.86473976    -1.39544461    -0.03571992
H     -1.03638907    -1.79411344    -0.09414493
H     -2.03386132    -1.27592064    -1.13884083
O      0.72774079    -2.21375892     0.17558912
H      1.38053231    -1.39673234     0.20545409
H      0.63377521    -2.26909135     0.97966398
15
water clusters train frame=842
O      2.35631720    -0.00315025     0.05381070
H      1.66772786     0.85293423     0.01133643
H      2.38839207    -0.08562645     1.03391991
O      0.76954283     2.36649278     0.01056017
H     -0.16661043     2.02343858    -0.12237562
H      0.85023666     2.32153708    -1.06953615
O     -1.88763244     1.51093245     0.12212058
H     -1.94701940     0.36277301     0.17078704
H     -1.87377868     1.63904253     1.06303660
O     -2.05035270    -1.26755911    -0.16955188
H     -0.99821497    -1.65104188    -0.17399940
H     -2.15258918    -1.21579133    -1.04666357
O      0.71501782    -2.23188725     0.13317158
H      1.27673279    -1.41982531     0.14738177
H      0.70977684    -2.45820913     1.17563268
15
water clusters train frame=843
O      2.30574376    -0.04315557     0.19114636
H      1.73975925     0.76533530     0.18669489
H      2.45586923    -0.17052769     1.09538468
O      0.78666926     2.21262782    -0.14998382
H     -0.10129503     1.92854110    -0.12971476
H      0.91301807     2.32501383    -1.06658022
O     -1.89791599     1.29205590     0.16591383
H     -1.85923969     0.43271917     0.11224256
H     -1.94768502     1.51926976     1.04878318
O     -1.91546457    -1.37190225    -0.16730240
H     -0.97197886    -1.65470375    -0.11452754
H     -2.04572032    -1.24053764    -1.10366685
O      0.69972904    -2.23356946     0.10475338
H      1.30196387    -1.41941037     0.11917230
H      0.61493939    -2.35768980     1.07145815
15
water clusters train frame=844
O      2.33630513     0.01350473     0.21456018
H      1.71383569     0.73869979     0.00009758
H      2.43037697    -0.20605806     1.17375445
O      0.72376230     2.32540871    -0.14484360
H     -0.13433587     1.96580674    -0.14448833
H      0.97860755     2.26672535    -1.12446452
O     -1.84760299     1.36614517     0.12335930
H     -1.91747240     0.45259488     0.01534050
H     -1.82674251     1.51253377     1.08082151
O     -1.98340196    -1.42289929    -0.15982457
H     -0.82891561    -1.69061763    -0.22290137
H     -1.97783312    -1.29077374    -1.02908766
O      0.78890474    -2.28542722     0.17386373
H      1.20860305    -1.46345312     0.12553298
H      0.49861568    -2.37387808     1.07044878
15
water clusters train frame=845
O      2.29715508     0.01567803     0.02161995
H      1.76400196     0.74602762     0.18250570
H      2.46384974    -0.14536356     1.14676200
O      0.70685707     2.25452329    -0.06126815
H     -0.03543405     1.88942927    -0.06028595
H      0.93140054     2.15918308    -1.09651643
O     -1.81321938     1.49394574     0.18740973
H     -1.97974760     0.60869223     0.05807487
H     -1.93629928     1.67521386     0.96496379
O     -1.84422167    -1.33200640    -0.15837544
H     -0.94809155    -1.78882403     0.04076313
H     -2.15026271    -1.22239490    -1.19022096
O      0.83387944    -2.27248712     0.27759278
H      1.20862140    -1.44358977     0.07635711
H      0.59900730    -2.37144075     1.03827980
15
water clusters train frame=846
O      2.28027017     0.00013203     0.12440073
H      1.76374619     0.78180644     0.11711015
H      2.49205614    -0.19228358     1.05915324
O      0.77149574     2.25893076    -0.14550390
H     -0.23682745     1.90471887    -0.08299390
H      0.91714928     2.27738127    -1.12782659
O     -1.92346342     1.36811735     0.10308109
H     -1.95613733     0.42824326     0.14047307
H     -1.96077572     1.62598096     1.12553739
O     -1.89784819    -1.41215778    -0.05602101
H     -0.98837912    -1.70007773    -0.05994812
H     -2.09193847    -1.34280703    -1.09660999
O      0.83175744    -2.20940216     0.19532502
H      1.24682812    -1.45322787     0.09875961
H      0.57384731    -2.35529538     1.05660277
15
water clusters train frame=847
O      2.41976831     0.01307412     0.11546872
H      1.75436917     0.80733792     0.13737514
H      2.40394349    -0.03532037     1.08445294
O      0.76523631     2.20194884    -0.12922754
H     -0.17217188     1.95508557    -0.06397949
H      1.02346712     2.22765520    -1.15576144
O     -1.86315928     1.29808247     0.19232708
H     -1.93191875     0.51001780     0.12036235
H     -1.86728207     1.57905269     1.00858828
O     -1.76195067    -1.46277753    -0.22860092
H     -0.90773451    -1.73533323    -0.17893019
H     -2.12564452    -1.40720071    -1.20094873
O      0.75987533    -2.20540560     0.10315085
H      1.37817396    -1.32026608     0.05786720
H      0.59219288    -2.30742793     0.95828490
15
water clusters train frame=848
O      2.32638678     0.02779808     0.09377158
H      1.73550210     0.74331479     0.21576287
H      2.59533458    -0.18975503     1.09511670
O      0.64856216     2.19859717    -0.12269188
H     -0.15195571     2.02139090    -0.13631787
H      0.97225153     2.31555553    -0.97979337
O     -1.84036486     1.35425371     0.18789172
H     -1.90736078     0.39457924     0.00367152
H     -1.89773640     1.47682010     1.07096393
O     -1.86633376    -1.36106113    -0.10050946
H     -1.07492516    -1.60926062    -0.01917139
H     -2.03199014    -1.33747835    -1.09729825
O      0.85210185    -2.39749372     0.11430013
H      1.24540243    -1.33378118     0.02324219
H      0.71523734    -2.37164914     1.13190423
15
water clusters train frame=849
O      2.40553574     0.07297467     0.13262604
H      1.78360812     0.76871822     0.11645775
H      2.47081367    -0.12892220     1.04962586
O      0.78162623     2.26378865    -0.11345165
H     -0.23387429     1.96335278    -0.08678052
H      0.88615601     2.31035456    -1.09332971
O     -1.91039821     1.35900170     0.13396563
H     -1.86151763     0.40208318     0.14523099
H     -1.91015855     1.63979658     1.04257566
O     -1.92101498    -1.33474463    -0.15944689
H     -0.93811819    -1.72169193    -0.03465106
H     -2.11578473    -1.34040535    -1.13194640
O      0.70295511    -2.30891342     0.14822911
H      1.32795559    -1.41711799     0.07273932
H      0.62684928    -2.41063217     1.04444914
15
water clusters train frame=850
O      2.35061942     0.02152255     0.09513961
H      1.78187204     0.78218715     0.10709182
H      2.43531650    -0.14385813     1.11500738
O      0.77249415     2.21502636    -0.22515228
H     -0.10912124     1.86152289    -0.00884424
H      0.92112924     2.20274975    -1.02299988
O     -1.78006736     1.44816486     0.12431196
H     -1.89593275     0.38474514     0.11394319
H     -1.85032434     1.58772345     1.01077856
O     -1.89307317    -1.39330580    -0.18718613
H     -0.96129402    -1.66498199    -0.12291012
H     -2.02710221    -1.29970893    -1.06030543
O      0.67831167    -2.20975172     0.05471062
H      1.29611265    -1.44230203     0.07673610
H      0.56976765    -2.32509386     1.03644856
15
water clusters train frame=851
O      2.41665422     0.17215499     0.21278045
H      1.90866222     0.83322700     0.07193613
H      2.43639340    -0.23413483     1.06132505
O      0.83734018     2.27968765    -0.20055140
H     -0.14298118     1.85123099    -0.17736925
H      0.71681058     2.23050408    -1.01952743
O     -1.92028231     1.38437459     0.19327688
H     -2.08100597     0.41885497     0.06404121
H     -1.88468472     1.63288649     1.05367122
O     -1.91706637    -1.26044298    -0.18488070
H     -0.97507783    -1.63557222    -0.16034369
H     -2.12880962    -1.44767068    -1.14793963
O      0.77639382    -2.09075715     0.24348450
H      1.24946774    -1.39917672     0.03620827
H      0.69593902    -2.41363555     1.09874416
15
water clusters train frame=852
O      2.29043021    -0.01011858     0.16057252
H      1.75658917     0.67999408     0.08824489
H      2.50005186    -0.12986029     1.11723744
O      0.73859777     2.19780615    -0.16459759
H     -0.20278471     1.91197167    -0.12526394
H      0.95500436     2.30018482    -1.14249882
O     -1.83251298     1.39640426     0.12411788
H     -1.91213987     0.38151090     0.12476509
H     -1.80733336     1.60631463     1.13266345
O     -1.94158253    -1.37242595    -0.07536264
H     -1.01884597    -1.60526601    -0.08885879
H     -2.13519162    -1.26841592    -1.12464091
O      0.72575637    -2.21725436     0.17286404
H      1.29366994    -1.44136296     0.02646341
H      0.59025625    -2.45744717     1.06222788
15
water clusters train frame=853
O      2.28768189     0.05285078     0.15247626
H      1.79089521     0.87405819     0.03041703
H      2.43843195    -0.27447512     1.10900189
O      0.68521003     2.17248984    -0.20235918
H     -0.24088906     1.89363005    -0.15733269
H      0.87994706     2.24906923    -1.09631063
O     -1.95486022     1.35183310     0.15148850
H     -1.87423153     0.34524694     0.11277928
H     -1.79051526     1.57774315     1.14116272
O     -1.88183227    -1.37775638    -0.04436058
H     -1.00481638    -1.66657626    -0.07711208
H     -2.04544053    -1.32985747    -1.00919579
O      0.79230487    -2.25447751     0.13464535
H      1.29662463    -1.48842549     0.02423616
H      0.62078580    -2.37767646     1.13318199
15
water clusters train frame=854
O      2.37728138     0.08015141     0.19073097
H      1.95747448     0.71294285    -0.00309538
H      2.41605796    -0.17291731     0.92826202
O      0.83068093     2.30123649    -0.23887465
H     -0.21498085     2.01970852    -0.20507596
H      0.92443642     2.26349491    -1.02218156
O     -2.00679013     1.40034089     0.20844622
H     -1.82436525     0.44742137     0.12111041
H     -1.95699906     1.48660539     1.11738598
O     -1.86665061    -1.36474740    -0.09592744
H     -0.96506304    -1.54515322    -0.14550189
H     -1.97075643    -1.32129816    -1.08695462
O      0.74960411    -2.26930260     0.25483642
H      1.31565235    -1.44869313     0.09492542
H      0.47077685    -2.27527334     1.04422347
15
water clusters train frame=855
O      2.36425333     0.02334896     0.17921655
H      1.82282260     0.81042159     0.06310597
H      2.37980707    -0.10953191     1.09308698
O      0.78262270     2.25715047    -0.10421618
H     -0.15402935     1.93962895    -0.09439784
H      0.92350465     2.26764009    -1.04189783
O     -1.89490023     1.43389139     0.09352778
H     -1.89578313     0.44331492     0.10465789
H     -1.84884245     1.56745290     1.04801107
O     -1.85813631    -1.33210721    -0.15572988
H     -1.04034258    -1.70127077    -0.08307699
H     -2.14462041    -1.35529524    -1.12861886
O      0.63024773    -2.24922422     0.16212024
H      1.28984368    -1.38191613     0.12677486
H      0.62779501    -2.37323789     1.09660237
15
water clusters train frame=856
O      2.25144773     0.01219807     0.07975354
H      1.77657957     0.73686309     0.03767422
H      2.37914569    -0.10783387     1.11781581
O      0.80229650     2.27874895    -0.14431018
H     -0.15987232     1.90256386    -0.11130709
H      1.00953307     2.24615903    -1.20061295
O     -1.87977999     1.37223045     0.22585039
H     -2.02581059     0.40914576     0.12974252
H     -1.77298057     1.55790596     1.11050369
O     -1.88838033    -1.42990098    -0.15734233
H     -0.87496884    -1.64750010    -0.02454357
H     -2.07827036    -1.31834564    -1.06517846
O      0.85171596    -2.39110270     0.20358328
H      1.25990382    -1.65809885     0.14832965
H      0.65978465    -2.39360881     1.10821378
15
water clusters train frame=857
O      2.37807026     0.02656782     0.25388231
H      1.77676088     0.79497644     0.09169036
H      2.34478945    -0.15438969     1.06693021
O      0.68914445     2.12189520    -0.11348896
H     -0.27728420     2.07525301    -0.18557210
H      0.98857198     2.47396254    -1.15620299
O     -1.86017583     1.49729639     0.07870215
H     -1.89491239     0.47121062    -0.02190093
H     -1.85434009     1.42504907     0.98611571
O     -1.92277052    -1.36283277    -0.08528091
H     -0.98557095    -1.76025908    -0.11107269
H     -2.19024876    -1.20291239    -1.19779669
O      0.89759627    -2.25445567     0.01587981
H      1.28675056    -1.42755932     0.10717205
H      0.56023094    -2.42378156     1.16076411
15
water clusters train frame=858
O      2.35968191     0.04990012     0.19496317
H      1.81356741     0.74426207     0.09010129
H      2.39152027    -0.18229268     1.02395982
O      0.74294635     2.26555618    -0.13746995
H     -0.15108610     1.95965161    -0.06474197
H      0.87841024     2.31612531    -1.06443074
O     -1.88886194     1.40589538     0.10080951
H     -1.88102891     0.37566042     0.10653335
H     -1.88466819     1.52207934     1.09701715
O     -1.91749718    -1.33085900    -0.16463326
H     -0.98473611    -1.72827728    -0.09897725
H     -2.04301039    -1.30055789    -1.10802756
O      0.76343881    -2.26751916     0.12523323
H      1.33168967    -1.54597740     0.16144553
H      0.56779893    -2.39268111     1.05576916
15
water clusters train frame=859
O      2.39212100    -0.04650769     0.05380262
H      1.75646108     0.74265077     0.02749032
H      2.44639054    -0.12984564     1.13559240
O      0.73311120     2.26067122    -0.23017299
H     -0.19302439     1.85016857    -0.05058648
H      0.82978712     2.30365505    -1.07158844
O     -1.85522359     1.30600822     0.17669918
H     -1.89412960     0.49184207     0.19436860
H     -1.89803406     1.59476974     1.11324004
O     -1.90627702    -1.36357711    -0.18297201
H     -0.98415788    -1.74105212    -0.25022401
H     -2.05371450    -1.31258845    -1.04130492
O      0.70137558    -2.14543576     0.16560702
H      1.28561412    -1.45015505     0.06914664
H      0.65584708    -2.37617238     1.09401408
15
water clusters train frame=860
O      2.29046798    -0.03447905     0.12028555
H      1.96954184     0.79969345     0.10542109
H      2.37869971    -0.09781741     0.87471938
O      0.70210968     2.28673001    -0.11706985
H     -0.21663260     1.94098497    -0.10591802
H      0.95542527     2.22323314    -0.97654597
O     -1.91647104     1.31183735     0.20568625
H     -1.85755275     0.31621941     0.15358130
H     -1.91784741     1.57443875     1.07649891
O     -1.76944551    -1.34134269    -0.21963752
H     -0.97151601    -1.72726532    -0.04495040
H     -2.06781284    -1.37469028    -1.09165286
O      0.69393649    -2.21698798     0.17126063
H      1.09979562    -1.49832953     0.19563117
H      0.41729904    -2.36157345     1.20990843
15
water clusters train frame=861
O      2.28330591     0.01986014     0.09027903
H      1.79311840     0.67595587     0.12902863
H      2.53507278    -0.21288923     1.07643427
O      0.78677084     2.26642268    -0.20507140
H     -0.16000201     1.99513642    -0.11465234
H      0.94663162     2.32031558    -1.10512891
O     -1.91650985     1.33636943     0.16313454
H     -1.81343532     0.44162385     0.11005461
H     -1.90468190     1.67786797     1.10269703
O     -1.86905997    -1.39623207    -0.13641400
H     -1.00290507    -1.66767373    -0.11154478
H     -2.08166459    -1.30045607    -1.15907869
O      0.68989714    -2.24724138     0.11562236
H      1.25171988    -1.39892213     0.21105446
H      0.67041637    -2.42904831     1.08632512
15
water clusters train frame=862
O      2.40805362    -0.01892158     0.11190505
H      1.85859299     0.62679091     0.15509933
H      2.51427830    -0.15673948     1.07421611
O      0.72723658     2.30748957    -0.06582738
H     -0.15078862     1.98517438    -0.04980412
H      1.01994396     2.12677241    -1.08687396
O     -1.88369838     1.29412332     0.08870485
H     -1.88910563     0.42302906     0.06640972
H     -1.93559833     1.62291389     1.15654476
O     -1.92859830    -1.33005938    -0.11424924
H     -0.96805149    -1.59020633    -0.11463368
H     -2.08224459    -1.34027502    -1.11488067
O      0.78958139    -2.20767993     0.20457809
H      1.26924540    -1.47132350    -0.01428178
H      0.67621058    -2.34173021     1.13408358
15
water clusters train frame=863
O      2.35901604    -0.04214971     0.14852165
H      1.89522482     0.78524561     0.17558009
H      2.44125054    -0.10681318     0.99133886
O      0.78567113     2.30376897    -0.09070006
H     -0.16539268     2.00368510    -0.02113431
H      1.00712683     2.23752356    -1.02447612
O     -1.92460157     1.40470038     0.18762012
H     -1.93904897     0.50088273     0.05096429
H     -1.94379751     1.65584327     0.99516495
O     -1.87265978    -1.45749912    -0.17117474
H     -1.06437980    -1.61472369    -0.02816482
H     -2.12233768    -1.27954872    -1.21913920
O      0.68130598    -2.28143741     0.22839504
H      1.37806771    -1.50322563     0.06256531
H      0.59409346    -2.40922522     1.02832438
15
water clusters train frame=864
O      2.45080650     0.00519774     0.14757732
H      1.77781945     0.74031016    -0.00591049
H      2.46886329    -0.16516556     1.13145791
O      0.74885100     2.23341242    -0.16867560
H     -0.18133864     1.91927253    -0.07364933
H      0.90278866     2.30235242    -1.01908501
O     -1.90118379     1.39223401     0.14669428
H     -1.88903134     0.42489152     0.16088435
H     -1.86466065     1.57095410     1.11065639
O     -1.91087496    -1.34589703    -0.16274728
H     -0.96266948    -1.74349981    -0.09070255
H     -2.02463776    -1.34589231    -1.06187395
O      0.65509700    -2.28947081     0.08277689
H      1.29571684    -1.44054881     0.09312800
H      0.58856919    -2.36090545     1.15538203
15
water clusters train frame=865
O      2.34633528    -0.02904504     0.09695142
H      1.78963341     0.76610061     0.06416734
H      2.50076173    -0.09380126     1.13198258
O      0.78640055     2.23867147    -0.16016719
H     -0.07617897     2.01322646    -0.04814646
H      0.95343995     2.36960759    -1.06349486
O     -1.90847115     1.33830934     0.15890717
H     -1.92810785     0.35023922     0.14293784
H     -1.95004810     1.62353289     1.12551400
O     -1.91250965    -1.40603039    -0.27272159
H     -1.08124753    -1.67600615    -0.12496139
H     -2.02504607    -1.30668200    -1.10471233
O      0.77528419    -2.25361267     0.14606655
H      1.30962058    -1.42197464     0.02634495
H      0.61701635    -2.36135276     1.08550084
15
water clusters train frame=866
O      2.39979886    -0.04286373     0.06116678
H      1.69142261     0.76137696     0.22053045
H      2.46931809    -0.05929729     1.01970661
O      0.70245651     2.19553771    -0.11146006
H     -0.06740683     2.01141407    -0.11370996
H      1.03862598     2.30407900    -1.05244374
O     -1.99956812     1.35577153     0.14239176
H     -1.93849744     0.33079755     0.21573613
H     -1.99981915     1.49108671     1.05038340
O     -1.96608696    -1.25477497    -0.11864203
H     -1.00063118    -1.75100412    -0.19112554
H     -2.29087523    -1.29341553    -1.12589591
O      0.64133416    -2.22492182     0.14178246
H      1.23737947    -1.55729434     0.08782430
H      0.59098107    -2.38818379     0.90717713
15
water clusters train frame=867
O      2.33685462     0.09261463     0.17730411
H      1.85206389     0.84893657     0.02938175
H      2.41412595    -0.13751495     1.05127935
O      0.82159086     2.30488304    -0.14576808
H     -0.18228897     1.90260642    -0.11576727
H      0.82523695     2.31856602    -1.08550932
O     -1.90660315     1.43088011     0.11568282
H     -1.90622616     0.40953101     0.08907122
H     -1.92922247     1.59658441     1.06561818
O     -1.99124143    -1.32755872    -0.13321302
H     -0.96252101    -1.63524054    -0.09202503
H     -2.07789094    -1.31759577    -1.06459287
O      0.65432830    -2.20413155     0.12438419
H      1.27436693    -1.36464875     0.07498770
H      0.53621911    -2.44216491     1.13824173
15
water clusters train frame=868
O      2.35725411    -0.02989630     0.18038888
H      1.73059949     0.79823131     0.25133958
H      2.50231534    -0.15448312     1.06854079
O      0.73667266     2.31562744    -0.24254712
H     -0.32756933     1.78801612    -0.12628331
H      0.79168386     2.32836840    -1.06233611
O     -1.93946661     1.45980490     0.17448401
H     -2.02626488     0.51903422     0.13707117
H     -1.93359805     1.51955840     1.11214201
O     -1.83681681    -1.46145792    -0.08284062
H     -1.00379968    -1.59875145    -0.12270636
H     -2.06694346    -1.26622578    -1.04587609
O      0.68099890    -2.23194598     0.18178499
H      1.25613924    -1.49449825     0.07233053
H      0.71896630    -2.34642968     1.15537161
15
water clusters train frame=869
O      2.40982095    -0.01071311     0.11885336
H      1.76697179     0.70158060     0.11756743
H      2.45282834    -0.19343029     1.16829618
O      0.79637245     2.25904249    -0.16869343
H     -0.26946697     1.93072880     0.01014142
H      0.93454785     2.19868845    -1.15529829
O     -1.92864428     1.32827586    -0.05606124
H     -2.07104379     0.43196255     0.13696325
H     -1.93679160     1.41304536     1.13633422
O     -1.96675227    -1.45491417    -0.29145000
H     -1.06503516    -1.60713376    -0.17319840
H     -2.11942903    -1.21809108    -1.10374995
O      0.59915395    -2.28630719     0.09317564
H      1.29523804    -1.47812980     0.06806005
H      0.63198674    -2.47368221     1.02575213
15
water clusters train frame=870
O      2.33916196    -0.00725285     0.16513488
H      1.78404257     0.77873322     0.09557172
H      2.48481675    -0.16887820     1.06396195
O      0.79275855     2.19987539    -0.21518203
H     -0.17788741     1.93115928    -0.10380999
H      0.94216845     2.31191262    -1.05845152
O     -1.86499503     1.39504827     0.16250107
H     -1.91538339     0.48544840     0.10959973
H     -1.86978544     1.54749331     1.13174462
O     -1.84435198    -1.40523088    -0.22039528
H     -0.92956492    -1.65421243    -0.14129197
H     -2.12425088    -1.34512821    -1.06856625
O      0.69362814    -2.23969446     0.11866541
H      1.29493014    -1.51611036     0.12735420
H      0.62263171    -2.46670564     1.17107536
15
water clusters train frame=871
O      2.41687004    -0.00037936     0.12788461
H      1.80561800     0.82521919     0.16408631
H      2.51299530    -0.18980922     1.16435305
O      0.68142678     2.22238509    -0.09309741
H     -0.18200118     1.91405724    -0.07626491
H      0.92473248     2.31490331    -1.05718076
O     -1.88251035     1.33317770     0.09371640
H     -1.86082896     0.41618289     0.10722868
H     -1.89058185     1.56172779     1.04668131
O     -1.89825626    -1.42097742    -0.22659044
H     -0.98054396    -1.65764111    -0.13279197
H     -2.09919666    -1.33298841    -1.07558808
O      0.64876191    -2.28924409     0.15633653
H      1.32474462    -1.45473949     0.15744254
H      0.62849208    -2.36926195     1.17110550
15
water clusters train frame=872
O      2.22938289     0.08935793     0.09912673
H      1.76961145     0.84104404     0.00188905
H      2.49237521    -0.02534015     1.14493256
O      0.80008420     2.31063568    -0.13079663
H     -0.24592316     1.99150373    -0.08353905
H      0.94789229     2.54906112    -1.06914726
O     -1.81581093     1.30636510     0.20775524
H     -1.91471079     0.48555045     0.03647244
H     -1.97377520     1.72740604     0.92307822
O     -1.93012687    -1.37094778    -0.24648023
H     -1.06594511    -1.61075406     0.05242432
H     -2.12041601    -1.36427815    -1.05985008
O      0.78607475    -2.28258620     0.13221258
H      1.26030941    -1.45686033     0.10604566
H      0.64175154    -2.42381179     1.09351138
15
water clusters train frame=873
O      2.41144269    -0.00267802     0.14988419
H      1.76110785     0.77499376     0.11129780
H      2.49972071    -0.16146802     1.03574079
O      0.71424053     2.25798026    -0.11247095
H     -0.14946350     1.96004110    -0.12289184
H      0.91622879     2.36045831    -1.10012273
O     -1.85976895     1.47264237     0.24252956
H     -1.92223705     0.42861715     0.10423651
H     -1.85815029     1.55045851     1.08361539
O     -1.94032031    -1.40980061    -0.18273000
H     -1.01408574    -1.69025442    -0.12892485
H     -2.10004558    -1.36434424    -1.02699521
O      0.73955891    -2.23027257     0.09976651
H      1.34836874    -1.44182394     0.13029851
H      0.64563687    -2.36678177     1.11456110
15
water clusters train frame=874
O      2.26213075     0.04244605     0.14522742
H      1.73290674     0.74147614     0.02478214
H      2.48700364    -0.29984052     1.04965797
O      0.73177649     2.21110480    -0.07627271
H     -0.16294468     1.99948637    -0.07083907
H      0.85477647     2.21180636    -1.23275486
O     -1.88380425     1.45350523     0.16300047
H     -1.82855070     0.36916258     0.15286806
H     -2.02635291     1.57959749     1.10999077
O     -1.95150548    -1.33168090    -0.14047628
H     -0.88002979    -1.62997969    -0.05450178
H     -1.96144230    -1.34064833    -1.02523112
O      0.75311869    -2.28567243     0.16869872
H      1.27820155    -1.42462864     0.05956067
H      0.65473077    -2.48580249     1.03839766
15
water clusters train frame=875
O      2.26800897    -0.15634300     0.19435628
H      1.83162021     0.86374939     0.05707717
H      2.37478433    -0.22707040     1.11660519
O      0.75145671     2.08504792    -0.05130571
H     -0.17318633     1.96076628    -0.06387316
H      0.79037430     2.14377207    -1.04211383
O     -1.78246879     1.32953612     0.19198023
H     -1.93257345     0.42597215     0.06945338
H     -1.92180582     1.54286250     1.04945186
O     -1.95684298    -1.35852897    -0.13343706
H     -0.85636073    -1.58609267    -0.24744516
H     -2.18228367    -1.43127745    -1.09268966
O      0.63750640    -2.24293431     0.11811186
H      1.19989562    -1.43616537     0.11854795
H      0.58679299    -2.35327600     1.01268804
15
water clusters train frame=876
O      2.30810822    -0.02638552     0.14352502
H      1.74096694     0.77533421     0.10685640
H      2.48530805    -0.12215147     1.07973603
O      0.73462796     2.20799861    -0.16925822
H     -0.20392295     1.90063162    -0.06560090
H      0.89601215     2.27078308    -1.15784540
O     -1.92726307     1.35260913     0.23424563
H     -1.87849898     0.40875853     0.08855038
H     -1.93459004     1.57822474     1.10278110
O     -1.85350217    -1.35736380    -0.12418167
H     -0.99811770    -1.71298739    -0.06398427
H     -2.05822480    -1.31867451    -1.06087595
O      0.71979000    -2.23899187     0.13110916
H      1.19553230    -1.44124750     0.09787282
H      0.63704843    -2.46174883     1.15086738
15
water clusters train frame=877
O      2.33563944    -0.06954800     0.15699626
H      1.89963020     0.79325309     0.04948629
H      2.41159717    -0.10219817     1.09560559
O      0.67879689     2.19478882    -0.12785256
H     -0.13987243     1.87482433    -0.09985118
H      0.89979828     2.23473888    -1.08307131
O     -1.94636614     1.31439062     0.17282921
H     -1.94532349     0.42239932     0.17622982
H     -1.87436542     1.58604339     1.03131878
O     -1.82831945    -1.38438399    -0.14555985
H     -0.95356557    -1.70812005    -0.01793527
H     -2.10146644    -1.27604248    -1.08386760
O      0.75371489    -2.23653319     0.08072595
H      1.29274183    -1.46921345     0.03707948
H      0.67236561    -2.31936953     1.07608687
15
water clusters train frame=878
O      2.32005730     0.06920794     0.12199710
H      1.78070759     0.73570779     0.14055591
H      2.45707041    -0.20269333     1.16743291
O      0.70949408     2.29769480    -0.13368655
H     -0.18640207     1.86799075    -0.11698569
H      0.93274100     2.37911537    -0.97346340
O     -1.93668630     1.35381351     0.19882619
H     -1.90114711     0.40294332     0.09803968
H     -1.93464009     1.54273178     1.13932945
O     -1.89610077    -1.34372411    -0.08497888
H     -1.02739930    -1.71602778    -0.23727192
H     -2.17797868    -1.30236951    -1.09389467
O      0.55286809    -2.19691051     0.11569695
H      1.29204888    -1.67338832    -0.00152299
H      0.53781515    -2.54405566     1.17880661
15
water clusters train frame=879
O      2.25289267    -0.04578293     0.09175385
H      1.81776998     0.84298668     0.12802938
H      2.38758593    -0.10901840     1.07398872
O      0.74693890     2.26601203    -0.11054797
H     -0.13966491     1.94406889    -0.09361325
H      0.90783268     2.35077916    -1.16294627
O     -1.98199664     1.38052856     0.14320579
H     -1.91523919     0.42027591     0.07950501
H     -1.87308682     1.56588754     1.11697360
O     -1.85212841    -1.35616700    -0.10560239
H     -0.94958000    -1.64635478    -0.08115129
H     -2.07781907    -1.31513656    -1.08303590
O      0.71031350    -2.22312492     0.18774286
H      1.26534975    -1.46706657     0.11075744
H      0.59085351    -2.44239792     1.08729632
15
water clusters train frame=880
O      2.41188419    -0.07363579     0.05691407
H      1.74821829     0.71962138     0.02361215
H      2.35877389    -0.20377616     1.07322703
O      0.64024874     2.17398527    -0.14952444
H     -0.19711854     2.01890725    -0.06043510
H      0.82930346     2.22019929    -1.15532172
O     -1.91710172     1.40219479     0.17478874
H     -1.89127444     0.42252718     0.05949986
H     -1.82250813     1.78587782     1.11179471
O     -1.92326852    -1.42269034    -0.12439645
H     -1.06515773    -1.69256991    -0.09495518
H     -2.06748257    -1.39416617    -1.07019687
O      0.72594634    -2.21661966     0.13873292
H      1.23784376    -1.46127249     0.12207119
H      0.60620200    -2.33225858     0.98990079
15
water clusters train frame=881
O      2.35434171    -0.00530826     0.18784766
H      1.75895290     0.72628458     0.09321700
H      2.54384983    -0.28704794     1.22059486
O      0.85879913     2.20102528    -0.19359606
H     -0.18175157     1.99265804    -0.08854602
H      0.94032740     2.17701993    -1.12676108
O     -1.76595411     1.33863675     0.08491275
H     -1.95601865     0.32071425     0.12427209
H     -1.97568053     1.64536723     0.86529692
O     -1.91841104    -1.38930858    -0.05762695
H     -0.90458831    -1.53587371    -0.01088565
H     -2.16050287    -1.41123117    -1.04385916
O      0.71107088    -2.16614102     0.14947761
H      1.38564754    -1.42028257     0.07339621
H      0.74801776    -2.35221940     1.17240576
15
water clusters train frame=882
O      2.37428501     0.03108771     0.11611600
H      1.69397689     0.79003922     0.10347970
H      2.48685593    -0.19418661     1.07508962
O      0.74687571     2.25718068    -0.13644102
H     -0.25232546     1.90407503    -0.06784264
H      0.93477649     2.27520221    -1.11059443
O     -1.89761633     1.34875228     0.11472664
H     -1.89388612     0.42318239     0.12598285
H     -1.92799664     1.56669689     1.05535543
O     -1.84017306    -1.33414840    -0.14002458
H     -0.96100852    -1.66633623    -0.12867015
H     -2.06082994    -1.35748538    -1.05003300
O      0.68588137    -2.15476946     0.12736106
H      1.32880142    -1.45618024     0.11368409
H      0.61266104    -2.35696828     1.07636988
15
water clusters train frame=883
O      2.36970172    -0.01324385     0.17793256
H      1.84682416     0.75526839     0.15045693
H      2.52044695    -0.16533185     1.09565529
O      0.73010836     2.22062325    -0.00497375
H     -0.15100730     2.02897256    -0.10293958
H      0.95110354     2.27473554    -1.06946173
O     -1.85903035     1.27586338     0.16091727
H     -1.91002948     0.49874826     0.13320612
H     -1.89112512     1.55779767     1.07486944
O     -1.84425959    -1.43689540    -0.06446605
H     -0.97168746    -1.69448408    -0.11417451
H     -2.07643814    -1.32720925    -1.04863095
O      0.73815085    -2.17725531     0.09435591
H      1.32520474    -1.55412112     0.08933298
H      0.63924026    -2.27445338     1.00270669
15
water clusters train frame=884
O      2.32556242    -0.00924260     0.21595401
H      1.76025503     0.72881413     0.13242238
H      2.53274228    -0.29528912     1.18372274
O      0.76835652     2.22664599    -0.00245301
H     -0.27736600     1.83495432    -0.16668016
H      0.97171575     2.26347106    -1.11349550
O     -1.88478168     1.33171197     0.18764530
H     -1.93238767     0.40560190     0.14704359
H     -2.01524309     1.50003521     1.10683663
O     -1.84294411    -1.37938145    -0.13045777
H     -1.00010694    -1.62400295    -0.10656717
H     -2.00836597    -1.23736136    -1.11465804
O      0.71387280    -2.19754670     0.26028763
H      1.43678754    -1.56248745    -0.04568517
H      0.59558318    -2.41329464     1.06561024
15
water clusters train frame=885
O      2.26971388     0.01971762     0.16023700
H      1.81573262     0.79822531     0.03951091
H      2.43579506    -0.08052247     1.12172411
O      0.79849320     2.22554547    -0.08483167
H     -0.17387693     1.91184877    -0.05116105
H      0.91198521     2.23529923    -1.04093875
O     -1.87304176     1.40909606     0.04254008
H     -1.94289840     0.47066509     0.06426055
H     -1.95922163     1.60015586     1.10760765
O     -1.86971099    -1.40234770    -0.20179562
H     -1.00940790    -1.66502084    -0.11951838
H     -2.08295679    -1.35182497    -1.03811402
O      0.73756332    -2.28267594     0.11378430
H      1.28657748    -1.42327542     0.14632000
H      0.64612897    -2.29856768     1.10429095
15
water clusters train frame=886
O      2.39925444    -0.00716789     0.20314986
H      1.80404432     0.76991548    -0.02975066
H      2.52558182    -0.14337903     1.04345470
O      0.77704898     2.23102931    -0.33359941
H     -0.11578549     1.91397866    -0.00195829
H      0.92975013     2.33658097    -1.13693946
O     -1.85603617     1.27379880     0.19767002
H     -1.87129013     0.42116186     0.16071643
H     -1.92866221     1.42386909     1.11473160
O     -1.84937662    -1.43185855    -0.13443311
H     -0.88573372    -1.66170067    -0.12694364
H     -2.10002263    -1.28863126    -1.04416576
O      0.60376696    -2.26394519     0.28945051
H      1.27816448    -1.39720016     0.12922954
H      0.60603867    -2.37848753     1.17685312
15
water clusters train frame=887
O      2.47751183    -0.00394719     0.13941509
H      1.81327434     0.72467813     0.15864062
H      2.35202111    -0.17102051     1.15912448
O      0.57720393     2.29583806    -0.14090323
H     -0.15438170     1.98495253    -0.11501621
H      0.97170761     2.27431417    -1.15989808
O     -1.91162029     1.29796387     0.03884084
H     -2.01609138     0.36107151     0.18466209
H     -1.84570669     1.54052076     1.11013171
O     -1.79370596    -1.33694747    -0.16618762
H     -1.08312723    -1.71336269    -0.13063985
H     -2.02722978    -1.40788970    -1.07444479
O      0.75407680    -2.34347937     0.18325802
H      1.31225294    -1.33696466     0.08057325
H      0.63538255    -2.41157038     1.05066660
15
water clusters train frame=888
O      2.39623220    -0.06846754     0.22782985
H      1.81976936     0.79322580     0.09297814
H      2.49070395    -0.19501072     1.10618228
O      0.70520592     2.25782439    -0.08558046
H     -0.16376540     1.90015508    -0.13090580
H      0.90321035     2.34188763    -1.12188168
O     -1.91319448     1.34803426     0.12103060
H     -1.87471255     0.38772144     0.10294759
H     -1.90290319     1.59663278     1.05976630
O     -1.92636994    -1.34811540    -0.23671837
H     -1.05359681    -1.67242167    -0.09484435
H     -2.06289862    -1.34923558    -1.06846748
O      0.66881556    -2.23377704     0.20216413
H      1.30205615    -1.44853760     0.08581804
H      0.56999163    -2.42379470     1.15458194
15
water clusters train frame=889
O      2.22222972    -0.07754019     0.03877854
H      1.73493488     0.79969935     0.10568198
H      2.51086728    -0.25915770     1.10836471
O      0.80755714     2.26012994    -0.21878441
H     -0.20157544     1.88350037    -0.04643466
H      0.96298117     2.32514660    -1.03594008
O     -1.88437336     1.27139874     0.19578498
H     -1.93545390     0.36893920     0.06528826
H     -1.93790067     1.60269364     1.17304697
O     -1.84524805    -1.44012613    -0.15681280
H     -1.04478588    -1.72591653    -0.13487123
H     -1.98431738    -1.34278621    -1.06328598
O      0.71987562    -2.22983771     0.22843382
H      1.32709233    -1.44916892     0.21041661
H      0.64831436    -2.41589674     1.14883672
15
water clusters train frame=890
O      2.33512808    -0.11950678     0.02360452
H      1.85560342     0.78446572     0.12107365
H      2.52873878    -0.21650627     1.00170670
O      0.63656345     2.27964094    -0.01092806
H     -0.07287642     1.97325950    -0.15348253
H      0.93647900     2.21710785    -1.05534995
O     -1.88276573     1.49222760     0.03773075
H     -1.93967408     0.46254222     0.09476053
H     -1.81396743     1.71887181     0.96174659
O     -2.02181643    -1.45607696    -0.10401376
H     -0.94898854    -1.69397046    -0.16264493
H     -2.01004689    -1.41104598    -1.11332477
O      0.69416793    -2.32490197     0.15651904
H      1.40155055    -1.51988525     0.12160765
H      0.59860880    -2.33144483     1.13642648
15
water clusters train frame=891
O      2.37625386    -0.06121714     0.10463873
H      1.73522064     0.76723284     0.11531589
H      2.49495737    -0.21234718     1.06151615
O      0.72973275     2.26335142    -0.07124447
H     -0.14844367     1.92586636    -0.07645400
H      0.86504250     2.22667506    -1.11448762
O     -1.83049787     1.38040008     0.16399481
H     -1.90557574     0.36945634     0.07982739
H     -1.85940125     1.57536085     1.09713828
O     -1.93182274    -1.41166779    -0.17061437
H     -1.06434910    -1.67339861    -0.08568677
H     -2.08912650    -1.36021257    -1.08642635
O      0.81425140    -2.20197435     0.19371913
H      1.23088061    -1.40614920     0.14999217
H      0.61225655    -2.42507936     1.10793223
15
water clusters train frame=892
O      2.23339975     0.04417306     0.14006032
H      1.81756861     0.82888363     0.13402543
H      2.59637512    -0.24198780     1.12416405
O      0.69267102     2.22811896    -0.06329776
H     -0.13611021     1.96700062     0.05915389
H      0.96643474     2.32052052    -1.13182705
O     -1.91304500     1.27315457     0.16356670
H     -1.90061225     0.39181140     0.12967102
H     -1.89133024     1.46763360     1.17589312
O     -1.88808527    -1.38668166    -0.08804027
H     -0.99065370    -1.65296770    -0.05088169
H     -2.00421945    -1.36489607    -1.01811905
O      0.77922501    -2.14003619     0.13198949
H      1.37448289    -1.43649571     0.04122554
H      0.58400664    -2.33753376     1.04897096
15
water clusters train frame=893
O      2.45753149    -0.00287057     0.10982800
H      1.68141959     0.67045431    -0.10209883
H      2.52969476    -0.29311980     1.18247010
O      0.80292398     2.22106052    -0.17116362
H     -0.13172298     1.98976176    -0.17487133
H      0.94786573     2.38629336    -1.07859454
O     -1.97276971     1.38532742     0.04402387
H     -2.04417595     0.49353953     0.12603974
H     -1.94357807     1.61854189     1.09678095
O     -1.99309766    -1.45532026    -0.16921088
H     -1.00655274    -1.62066668    -0.09214264
H     -2.14952998    -1.34715221    -0.95705655
O      0.62933562    -2.02743377     0.22467476
H      1.44004867    -1.55997244     0.04450272
H      0.68159751    -2.29629861     1.15287258
15
water clusters train frame=894
O      2.32588063    -0.01388053     0.19563729
H      1.78169598     0.79310598     0.06728168
H      2.48684745    -0.13276263     1.13752885
O      0.68907009     2.21710237    -0.14961715
H     -0.14488466     1.96644194    -0.09535626
H      0.93386276     2.31978722    -1.08031122
O     -1.85001561     1.45374749     0.21108301
H     -1.82590599     0.39278720     0.13000546
H     -1.89041049     1.59278449     1.06255837
O     -1.98376135    -1.37534478    -0.22675625
H     -1.01243578    -1.66324732    -0.10223596
H     -2.09147710    -1.29678108    -1.11347551
O      0.69462599    -2.27242315     0.12706222
H      1.25308259    -1.39429331     0.12732245
H      0.61773924    -2.35248935     1.11138456
15
water clusters train frame=895
O      2.38730232    -0.04100801     0.10727668
H      1.81552079     0.62791515     0.06580072
H      2.41102520    -0.18031732     1.14321080
O      0.71795640     2.37580204    -0.13146130
H     -0.08212530     1.92929224    -0.18948295
H      0.83246079     2.34857608    -1.11909418
O     -1.87650303     1.36411856     0.09591661
H     -1.79466181     0.45521205     0.17730272
H     -1.86945577     1.56206376     1.13762161
O     -1.91754786    -1.35829892    -0.16002570
H     -1.00637283    -1.69514669    -0.14145614
H     -2.13092308    -1.28527810    -1.02326041
O      0.66691634    -2.27340355     0.09371070
H      1.24920715    -1.50275633    -0.00508334
H      0.53193915    -2.25231432     1.02009020
15
water clusters train frame=896
O      2.34987024    -0.00347047     0.23483148
H      1.80762067     0.73594863     0.11411582
H      2.38554725    -0.02328563     1.06479659
O      0.76366386     2.31076043    -0.27778122
H     -0.12573776     1.91657551    -0.11190069
H      0.93479823     2.34031330    -1.10844327
O     -1.75757219     1.35591024     0.18768874
H     -1.94037813     0.37014475     0.20175717
H     -1.96354777     1.56032529     1.14966551
O     -1.94597148    -1.33625557    -0.15301103
H     -1.07553627    -1.68113283    -0.13940048
H     -2.07790908    -1.21357322    -1.04205838
O      0.75373904    -2.19707125     0.28300026
H      1.25040748    -1.41350415     0.06217556
H      0.61844332    -2.34089538     1.13363553
15
water clusters train frame=897
O      2.33954716    -0.00629313     0.12044513
H      1.80868446     0.78330905     0.09443070
H      2.43819015    -0.15979491     1.08388003
O      0.79480065     2.19396617    -0.19356897
H     -0.15787742     2.02705666    -0.13669467
H      0.90616515     2.26646448    -1.10370167
O     -1.91023061     1.36176821     0.18717921
H     -1.82855051     0.42599662     0.10320291
H     -1.92998784     1.52551728     1.10294630
O     -1.94719130    -1.44812311    -0.13521738
H     -0.99932087    -1.64044831    -0.08666698
H     -2.06758420    -1.24896598    -1.12203317
O      0.71645422    -2.21354465     0.19600691
H      1.27876102    -1.40759794     0.04129017
H      0.57436694    -2.35304040     1.10646162
15
water clusters train frame=898
O      2.31431617    -0.13545890     0.20999243
H      1.75584350     0.84170354     0.15294402
H      2.43672420    -0.14803736     1.02442374
O      0.85091813     2.19424646    -0.17051767
H     -0.13262270     1.89423098    -0.08714358
H      0.93499427     2.22498333    -1.14498322
O     -1.82016225     1.19526081     0.23789432
H     -1.91857999     0.38259553     0.03525324
H     -1.93795673     1.53876461     1.07284414
O     -1.87146431    -1.44965560    -0.15651670
H     -0.97298316    -1.80798860    -0.10491564
H     -2.09495092    -1.38549934    -1.10877293
O      0.81747445    -2.29952924     0.14837402
H      1.27147205    -1.48152511     0.08706516
H      0.58682369    -2.37521957     1.03967752
15
water clusters train frame=899
O      2.43518544     0.05743556     0.21538639
H      2.02673668     0.76412080     0.09453838
H      2.45401903    -0.15517172     1.18782031
O      0.71788989     2.38390667    -0.12935955
H     -0.21572873     2.15526772    -0.19364499
H      0.96189333     2.25870642    -1.19047335
O     -1.86298298     1.46205825     0.17289840
H     -1.82430777     0.37157378     0.05839393
H     -1.74131348     1.64735465     1.03824833
O     -1.91159448    -1.43041111    -0.21559584
H     -0.97349464    -1.68100628    -0.04302645
H     -2.02262558    -1.40398419    -1.13443015
O      0.83236137    -2.31416987     0.10037118
H      1.18091232    -1.55939874    -0.03752148
H      0.67663899    -2.49975049     1.05533496
15
water clusters train frame=900
O      2.38309880    -0.03092045     0.17623513
H      1.75008195     0.80805158     0.05599768
H      2.50276737    -0.10409275     1.08645158
O      0.76325078     2.34151118    -0.17895402
H     -0.16136221     1.93165149    -0.08541359
H      0.87225928     2.30509803    -1.10688636
O     -1.88328843     1.38739848     0.20161278
H     -1.89470839     0.48464307     0.09838588
H     -1.89339003     1.63037781     1.10901599
O     -1.91930852    -1.37994688    -0.14869817
H     -0.96678843    -1.64220261    -0.09283924
H     -2.07452305    -1.28522419    -1.12786071
O      0.77899376    -2.22583106     0.15568244
H      1.26279965    -1.48393811     0.15799278
H      0.66350068    -2.35940336     1.04273631
15
water clusters train frame=901
O      2.49529653    -0.03156922     0.02227332
H      1.92247741     0.83029268     0.04638101
H      2.40613208    -0.17394930     1.08770020
O      0.68746203     2.23435787    -0.18579369
H     -0.19274684     1.99315808    -0.03023621
H      0.93158745     2.38497908    -1.14124530
O     -1.87462316     1.45123294     0.08508162
H     -1.90275750     0.49202159     0.11205723
H     -1.87095582     1.52137288     1.16050136
O     -2.04140572    -1.45993294    -0.09808516
H     -1.03422264    -1.70195162    -0.14010551
H     -2.07696389    -1.34217950    -1.11631061
O      0.77054515    -2.22082801     0.15283260
H      1.31479526    -1.32136261     0.14039399
H      0.66235085    -2.40545155     1.12281319
15
water clusters train frame=902
O      2.45054280     0.05236406     0.18806584
H      1.69934619     0.81913379     0.07644890
H      2.42152171    -0.26650337     1.18004432
O      0.72681975     2.17288592    -0.00325013
H     -0.20421273     1.98571807    -0.04474569
H      0.97651159     2.24236999    -1.12681578
O     -1.87676447     1.41759025     0.09854897
H     -1.81482921     0.47046798     0.12728877
H     -1.84727031     1.52067305     1.03947698
O     -1.85855171    -1.36178061    -0.17640577
H     -1.00483759    -1.71490613    -0.19734707
H     -2.21350940    -1.25023762    -1.08197302
O      0.80557714    -2.18551274     0.13386277
H      1.35004556    -1.35168768    -0.00596644
H      0.49577684    -2.44403636     1.13875422
15
water clusters train frame=903
O      2.37235450     0.08464442     0.19283311
H      1.79065380     0.76051585     0.11891458
H      2.48354901    -0.15859860     1.13139812
O      0.73689886     2.20439346    -0.21991925
H     -0.09118171     1.96229264    -0.08598446
H      0.91049005     2.28669095    -1.06745336
O     -1.83364390     1.39641803     0.16188300
H     -1.90837781     0.38212275     0.13702358
H     -1.93802537     1.55202698     1.10776432
O     -1.84392897    -1.40825420    -0.15541643
H     -0.97948131    -1.64658020    -0.07463695
H     -2.02228540    -1.29183988    -1.13140450
O      0.75687836    -2.19053716     0.18225434
H      1.34665568    -1.45587082     0.04907583
H      0.62892968    -2.42019205     1.07377635
15
water clusters train frame=904
O      2.44522271    -0.10642299     0.12883141
H      1.82668245     0.79849903     0.08080174
H      2.46243214    -0.21474297     1.10998717
O      0.72705553     2.23350265    -0.21192870
H     -0.22230556     1.86989622    -0.04183074
H      0.88033259     2.19715232    -1.05239218
O     -1.92462380     1.41359076     0.22051466
H     -1.85034569     0.38906196     0.03502814
H     -1.91216683     1.60638688     1.03086541
O     -1.91133723    -1.45509027    -0.16360395
H     -0.90281389    -1.55355307    -0.04649306
H     -2.10747935    -1.43541271    -1.10985908
O      0.73117212    -2.27187844     0.17638238
H      1.27640921    -1.37875415     0.03690492
H      0.57823173    -2.32203829     1.02765299
15
water clusters train frame=905
O      2.37016399     0.00358732     0.04363642
H      1.68231530     0.82691718     0.13136880
H      2.54193181    -0.13898028     0.96625284
O      0.79797749     2.35321932    -0.07757364
H     -0.14991107     1.88650835    -0.26973942
H      0.88286223     2.34323065    -1.07742014
O     -1.76318616     1.40245372     0.09150415
H     -2.02884627     0.29548786     0.10781225
H     -1.84041436     1.43831268     1.12616181
O     -1.97708623    -1.36992726    -0.20911181
H     -0.85734734    -1.74381722    -0.15398758
H     -1.96320704    -1.21704282    -1.13999883
O      0.60460905    -2.13474529     0.08509201
H      1.16457399    -1.51300929     0.20173529
H      0.55506036    -2.47798561     1.02419806
15
water clusters train frame=906
O      2.32760338     0.01734349     0.18749166
H      1.81433130     0.75803141     0.13413006
H      2.47133113    -0.18738197     1.04506116
O      0.78370167     2.29042347    -0.09425697
H     -0.18496665     1.90518631    -0.13938644
H      0.95848516     2.29476467    -1.09686185
O     -1.90194601     1.34964490     0.21483775
H     -1.93883770     0.39362810     0.14310045
H     -1.89004716     1.58923118     1.07088650
O     -1.86495931    -1.44155070    -0.13913445
H     -0.95325511    -1.63182370    -0.12707403
H     -2.15744121    -1.27998628    -1.11368406
O      0.75492508    -2.21649270     0.15504473
H      1.27390265    -1.46848149     0.09550749
H      0.61468235    -2.36282537     1.10299511
15
water clusters train frame=907
O      2.40442180    -0.09200777     0.09528839
H      1.83654384     0.74042318     0.02622378
H      2.56386494    -0.12780422     0.96033503
O      0.76205706     2.22147906    -0.07243089
H     -0.11244853     1.96532798     0.01591740
H      0.88123428     2.24562397    -1.13819952
O     -2.00018023     1.43659159     0.20331938
H     -1.92630491     0.42648637     0.05678588
H     -1.96615257     1.53193140     0.95276202
O     -1.94769487    -1.39556275    -0.15050187
H     -1.11912984    -1.73836969    -0.11333479
H     -2.07816163    -1.29676669    -1.10920144
O      0.66680146    -2.29039650     0.11190409
H      1.28630627    -1.47939717     0.00906326
H      0.55908476    -2.46682054     1.17514475
15
water clusters train frame=908
O      2.38172324     0.06275349     0.17084206
H      1.72026599     0.71755092     0.05984917
H      2.51859439    -0.20863018     1.18465497
O      0.73159633     2.19660639    -0.18582116
H     -0.16495501     2.03068203    -0.07508100
H      0.96934346     2.10118713    -1.09263299
O     -1.92541578     1.42173433     0.07418479
H     -1.85713533     0.42399865     0.18303412
H     -1.83604707     1.64345266     1.15845657
O     -1.92217077    -1.38704999    -0.21777251
H     -0.97565709    -1.72532338    -0.04906380
H     -2.18650309    -1.28781208    -0.98942693
O      0.80362938    -2.15909143     0.31681338
H      1.45118115    -1.54683740     0.15490229
H      0.50994740    -2.32850587     1.05156131
15
water clusters train frame=909
O      2.37626198     0.09417847     0.12626699
H      1.84227499     0.78916035     0.14112091
H      2.41459961    -0.21552554     1.05851251
O      0.66550366     2.21934256    -0.17197973
H     -0.24993757     1.92859640    -0.06102344
H      0.84849769     2.31365306    -1.09885772
O     -1.95407687     1.38453274     0.13500508
H     -1.88811008     0.44610177     0.04210196
H     -1.89602333     1.53012525     1.04105299
O     -1.95728928    -1.43610823    -0.18333607
H     -1.01051064    -1.61588043    -0.07923401
H     -1.96575865    -1.28621661    -1.10790937
O      0.71559594    -2.26260092     0.15912900
H      1.24752818    -1.44981240     0.05810054
H      0.61820384    -2.33159909     1.07773096
15
water clusters train frame=910
O      2.29094513     0.02699033     0.20248440
H      1.73602812     0.76827840     0.15281117
H      2.45715270    -0.27683152     1.03436631
O      0.70742616     2.25604873    -0.06815649
H     -0.15169690     1.92924374    -0.07461841
H      1.00007402     2.35768039    -1.04474639
O     -1.87408348     1.28735865     0.19174031
H     -1.95033205     0.41679012     0.13157106
H     -1.87324434     1.62804580     1.03359586
O     -1.90138419    -1.40883399    -0.12460159
H     -1.05200420    -1.65535824    -0.14949369
H     -1.94581304    -1.44486025    -1.16810118
O      0.74191045    -2.19048096     0.02789796
H      1.22962370    -1.47789481     0.17973032
H      0.62597794    -2.41855604     1.04574956
15
water clusters train frame=911
O      2.40767470    -0.03938455     0.27028683
H      1.75671367     0.77679475     0.11717164
H      2.40141799    -0.23468091     1.27839201
O      0.77688318     2.16277497    -0.16157598
H     -0.15094428     2.00612481    -0.18328256
H      0.88010562     2.24413479    -1.11227228
O     -1.87401771     1.36936635     0.15704415
H     -1.95969804     0.34089935     0.07976343
H     -1.97688935     1.81058597     1.17452564
O     -2.10469788    -1.34910749    -0.21077831
H     -0.95120547    -1.63176344    -0.09513406
H     -2.10688329    -1.05904739    -1.22883278
O      0.78791073    -2.33534260     0.09657533
H      1.33347000    -1.42987297     0.08511931
H      0.69605818    -2.34900720     1.21434084
15
water clusters train frame=912
O      2.32628147    -0.01225803     0.22274913
H      1.75310432     0.75644257     0.05320621
H      2.42915279    -0.15336133     1.14247724
O      0.67143170     2.21886314    -0.18602121
H     -0.19849497     1.95035152    -0.08285147
H      0.82849609     2.32432613    -1.09768265
O     -1.83126964     1.41329793     0.13601988
H     -1.79425122     0.38359787     0.11660064
H     -1.85166879     1.55446718     1.08585694
O     -1.93624144    -1.40323583    -0.14824434
H     -1.05747996    -1.63393792    -0.11082311
H     -2.12619191    -1.37136292    -1.11331370
O      0.74063317    -2.26381191     0.12131715
H      1.22543612    -1.43390214     0.09304329
H      0.60389959    -2.42109142     1.10182220
15
water clusters train frame=913
O      2.25749041     0.00367002     0.21779094
H      1.80463179     0.76298830     0.05392712
H      2.37882348    -0.18667452     0.97851024
O      0.78161787     2.22077539    -0.05313994
H     -0.22016099     1.97333207    -0.09278814
H      0.96073145     2.20176524    -1.09172800
O     -1.94510122     1.40608255     0.24228552
H     -1.90998422     0.28338654     0.08185894
H     -1.92990450     1.62769010     1.01345238
O     -1.73692974    -1.29462576    -0.14532373
H     -1.03027181    -1.60164685    -0.04033585
H     -2.09432257    -1.42210507    -1.07325542
O      0.74659332    -2.24895987     0.25354323
H      1.20230824    -1.57192485    -0.00630691
H      0.60237817    -2.41740335     1.04281410
15
water clusters train frame=914
O      2.25887805    -0.07383513     0.19778484
H      1.77312385     0.79490712     0.11368452
H      2.47328006    -0.15209949     0.98001604
O      0.69922064     2.21755496    -0.13042526
H     -0.33325456     1.89263501     0.04230640
H      0.84205121     2.33329638    -1.00417952
O     -1.94368386     1.29533324     0.05058953
H     -1.90020318     0.40680625     0.11444024
H     -1.77951271     1.52773519     1.09224505
O     -1.92999072    -1.33251983    -0.16396167
H     -0.90792408    -1.72785917    -0.16108102
H     -2.21273105    -1.29870459    -1.04392698
O      0.73753948    -2.12452016     0.14980552
H      1.33456502    -1.53771599     0.16045854
H      0.63486710    -2.41917979     1.19224582
15
water clusters train frame=915
O      2.41016100    -0.02932878     0.14169140
H      1.78042336     0.79920612     0.06499159
H      2.39470756    -0.12932265     1.17464652
O      0.74481592     2.24559564    -0.13228903
H     -0.17872900     1.86426609    -0.06213716
H      0.93574978     2.27739463    -1.12573378
O     -1.92412903     1.44626680     0.19193000
H     -1.83575195     0.45795679     0.11044205
H     -1.89458454     1.58234920     1.09066535
O     -1.89458685    -1.36751880    -0.20515699
H     -1.05535096    -1.69135400    -0.15239709
H     -2.08546344    -1.34001721    -1.08462791
O      0.65632389    -2.14917280     0.15706867
H      1.26934501    -1.45977644     0.13114399
H      0.61449936    -2.35927500     1.08628721
15
water clusters train frame=916
O      2.29204645     0.00717803     0.24327479
H      1.68489789     0.80406975     0.06078634
H      2.47125987    -0.05895275     1.08243988
O      0.81126954     2.31751846    -0.10224421
H     -0.18127172     2.03824895    -0.09037303
H      0.90852297     2.25462978    -1.03240401
O     -1.81285006     1.33394107     0.19898304
H     -1.90539148     0.40075069     0.13933308
H     -1.87354685     1.58573276     1.01775873
O     -1.92119413    -1.34732061    -0.23741323
H     -1.00954429    -1.66273627    -0.10863593
H     -2.17865821    -1.38768772    -1.04337295
O      0.73003818    -2.32264196     0.08214614
H      1.30283147    -1.36899026     0.19051077
H      0.64091472    -2.42106534     1.07822695
15
water clusters train frame=917
O      2.35030632     0.09630150     0.04859112
H      1.76539402     0.65210158     0.17302720
H      2.32722441    -0.18495826     0.99496211
O      0.66995432     2.29480124    -0.13933957
H     -0.16772779     1.90272938    -0.12250865
H      0.96756741     2.27575183    -1.15407631
O     -1.89744941     1.32320700     0.19709556
H     -1.90128828     0.39189458     0.21608698
H     -1.84823567     1.67095794     1.12018131
O     -1.84342567    -1.37786618    -0.17858821
H     -1.08369643    -1.53168259    -0.05756875
H     -1.98018694    -1.33731547    -1.11937443
O      0.86076418    -2.23960953     0.13105303
H      1.13035239    -1.50673021    -0.06656248
H      0.59290249    -2.30379751     1.09268771
15
water clusters train frame=918
O      2.38207357    -0.01324867     0.09583298
H      1.72545259     0.71919437     0.13999586
H      2.39087836    -0.19389285     1.07164180
O      0.75323183     2.28717309    -0.21838154
H     -0.15069817     1.96115394    -0.04401144
H      0.96035014     2.27755806    -1.06703169
O     -1.88491348     1.45957315     0.13683167
H     -1.91554059     0.40612675     0.03892736
H     -1.88094080     1.50036903     1.06487719
O     -1.96398087    -1.33198620    -0.18393366
H     -1.00642881    -1.67735072    -0.16250560
H     -2.10118897    -1.32703228    -1.15114119
O      0.76704161    -2.23296670     0.20507781
H      1.29354780    -1.42673347     0.05800298
H      0.64956046    -2.35340569     1.07058039
15
water clusters train frame=919
O      2.40938084    -0.00954039     0.16582233
H      1.74663325     0.77752161     0.07614836
H      2.49964392    -0.16109986     1.12869116
O      0.66552657     2.19923169    -0.03341662
H     -0.17195607     1.94228589    -0.06117318
H      0.94308205     2.32950318    -1.07441465
O     -1.85811044     1.38033167     0.23948443
H     -1.81785462     0.35657393     0.07589905
H     -1.87437609     1.57724524     1.10307411
O     -1.97059960    -1.35733365    -0.22693528
H     -0.94635902    -1.70388465    -0.18071618
H     -1.97792519    -1.34509627    -1.15082406
O      0.73747480    -2.20570853     0.14762710
H      1.29292948    -1.49823506     0.11535830
H      0.55174859    -2.36324772     1.15539404
15
water clusters train frame=920
O      2.26003199    -0.06059690     0.21616346
H      1.82488841     0.82628925     0.18756415
H      2.43845713    -0.21831626     1.09611803
O      0.88494419     2.23729282    -0.04218347
H     -0.10111387     1.97983131     0.02272684
H      0.99914356     2.24659739    -0.99333381
O     -1.89241650     1.41878181     0.22935466
H     -1.81682161     0.25184316     0.31113643
H     -1.94322897     1.64102198     1.10600309
O     -1.76576737    -1.41594460    -0.09737247
H     -0.98947367    -1.82470224    -0.01495118
H     -2.24646602    -1.32752379    -1.00471577
O      0.77781154    -2.37249641     0.09642750
H      1.32548908    -1.49691968     0.12815038
H      0.63953598    -2.50231973     1.23178229
15
water clusters train frame=921
O      2.32364998    -0.04337059     0.20342141
H      1.77339205     0.75782098     0.17035808
H      2.45838528    -0.13674878     1.12475481
O      0.67019616     2.29677521    -0.14358332
H     -0.21164980     1.94285464    -0.04866324
H      0.91824691     2.31933499    -1.09823329
O     -1.91521730     1.35430765     0.09449869
H     -1.93512062     0.51497727     0.09661038
H     -1.92049087     1.59450513     1.10566971
O     -1.90954936    -1.46982400    -0.18478226
H     -0.98464062    -1.61497947     0.00075328
H     -2.11161316    -1.31054259    -1.10265445
O      0.65164270    -2.19338365     0.16740909
H      1.27187085    -1.41520694     0.12210230
H      0.62656636    -2.42693921     1.03953937
15
water clusters train frame=922
O      2.36620281     0.04820803     0.21380496
H      1.82036694     0.83371917     0.00436170
H      2.41220691    -0.19592281     1.12055859
O      0.79309648     2.27106103    -0.16886169
H     -0.18865898     1.87497365    -0.06797374
H      0.86086295     2.34331710    -1.03926798
O     -1.84427610     1.41081802     0.05418187
H     -1.81620806     0.45157342     0.01151549
H     -1.83619914     1.60673056     1.04347979
O     -1.79045318    -1.43330571    -0.11446681
H     -0.98785014    -1.63247653    -0.04333209
H     -2.11526371    -1.34775410    -1.08679997
O      0.70260041    -2.33877754     0.16462245
H      1.18526461    -1.40143241     0.07111515
H      0.67939121    -2.35278241     1.09418714
15
water clusters train frame=923
O      2.26174036    -0.13647409     0.14526174
H      1.75329736     0.77139201     0.04448199
H      2.46414344    -0.11050220     1.01459314
O      0.55922303     2.28672886    -0.11123467
H     -0.20936771     1.98043325    -0.10975174
H      1.02193998     2.21495087    -1.18689056
O     -1.89104800     1.36417193     0.16516416
H     -1.94995208     0.60795408     0.13278988
H     -1.76310579     1.51471412     0.95421332
O     -1.79362373    -1.31179435    -0.12356463
H     -0.93930982    -1.65193222    -0.04372918
H     -1.93303120    -1.15713653    -1.05669300
O      0.86355143    -2.22615405     0.02404245
H      1.19670938    -1.48209670     0.03704066
H      0.54403285    -2.43478064     0.99667401
15
water clusters train frame=924
O      2.40259254     0.02475896     0.11689055
H      1.78482665     0.73465767     0.11778826
H      2.49981753    -0.15023219     1.11133695
O      0.73819461     2.20179735    -0.13564839
H     -0.24437922     1.94137624    -0.10490271
H      0.90436833     2.26424892    -1.07075335
O     -1.97298851     1.45772715     0.12874536
H     -1.88215376     0.39770024     0.13552154
H     -1.87129487     1.55966891     1.08110833
O     -1.91348446    -1.33730861    -0.18062357
H     -0.93869553    -1.65875338    -0.13770953
H     -2.05898727    -1.35024998    -1.00534938
O      0.69782108    -2.21845701     0.07041675
H      1.23572822    -1.48349816     0.09652899
H      0.66487015    -2.34253301     1.00634139
15
water clusters train frame=925
O      2.39176284    -0.02845441     0.14851874
H      1.66094147     0.70771055     0.02481333
H      2.46464827    -0.10641048     1.05833456
O      0.74785967     2.30505373    -0.14194766
H     -0.22625262     1.94345674    -0.05693151
H      0.95114770     2.27539533    -1.08554415
O     -1.92564732     1.35681023     0.18635043
H     -1.86416268     0.38545365     0.16785853
H     -1.94881616     1.64196946     1.08610161
O     -1.80910744    -1.51455958    -0.18170898
H     -0.99336366    -1.76921997    -0.17921704
H     -2.13322484    -1.19416721    -1.09819441
O      0.71217944    -2.25882113     0.08071788
H      1.29144775    -1.46490328     0.14880877
H      0.66962767    -2.42046464     1.11214246
15
water clusters train frame=926
O      2.43643491     0.05588700     0.21489586
H      1.73452592     0.83939635     0.07046869
H      2.43365489    -0.36538074     1.14498925
O      0.77602647     2.21664851    -0.02558771
H     -0.27852045     1.82372461    -0.07707953
H      0.82626116     2.30648013    -1.12257688
O     -1.90079842     1.26915625     0.19489087
H     -1.84297523     0.39824795     0.19714027
H     -1.74118533     1.68273307     1.10763259
O     -1.85280957    -1.44698257    -0.16223662
H     -1.09125547    -1.66994555    -0.20655478
H     -2.19171535    -1.24639710    -0.96979179
O      0.66794999    -1.99335288     0.23131417
H      1.26141583    -1.34176566     0.08596077
H      0.54043642    -2.34122651     1.16285414
15
water clusters train frame=927
O      2.40649378     0.00131199     0.15483895
H      1.78589132     0.72918592     0.07300928
H      2.49078355    -0.16538734     1.08403450
O      0.69912285     2.21088150    -0.12389971
H     -0.12762687     1.95175903    -0.13927079
H      0.86976048     2.32648155    -1.08755324
O     -2.01766220     1.38915255     0.16824295
H     -1.89038146     0.35526841     0.15704753
H     -1.93870022     1.54443175     1.17518845
O     -1.87811646    -1.38994082    -0.24686010
H     -0.99057986    -1.65780182    -0.09800843
H     -2.10198254    -1.36539984    -1.06159120
O      0.71364050    -2.14011386     0.07631473
H      1.26071133    -1.45177106     0.14878778
H      0.58162475    -2.34700436     1.07790743
15
water clusters train frame=928
O      2.37834557    -0.04811215     0.15346580
H      1.75019070     0.87536699     0.10144625
H      2.37104341    -0.23694685     1.17758796
O      0.79878625     2.24217206    -0.13319845
H     -0.20115673     1.87410772    -0.07902360
H      0.91785222     2.38716036    -1.06274764
O     -1.94713780     1.32820314     0.13827561
H     -1.84120179     0.39545493     0.12800790
H     -1.84676377     1.42794220     1.13792441
O     -1.96893189    -1.46912040    -0.15367399
H     -1.01310410    -1.73282274    -0.00183074
H     -2.10026245    -1.40952028    -1.15828197
O      0.71885298    -2.29498328     0.06024774
H      1.21115443    -1.41943210     0.13566730
H      0.58677291    -2.33755357     1.13801009
15
water clusters train frame=929
O      2.26155285    -0.00198582     0.16564836
H      1.75835070     0.85938723     0.21999253
H      2.46387526    -0.34990768     0.93698494
O      0.74738309     2.25597801    -0.22082437
H     -0.20768419     1.94016757    -0.05651793
H      0.84157340     2.17364412    -1.24998666
O     -1.94123049     1.34124672     0.19760810
H     -1.74513667     0.27817738    -0.13882902
H     -1.97326946     1.55461656     1.19167044
O     -2.00820008    -1.44543421    -0.03040046
H     -0.89503179    -1.72403596    -0.00161519
H     -2.12125752    -1.40923201    -1.11508665
O      0.65141965    -2.36100629     0.15076226
H      1.24257386    -1.49615237     0.05904465
H      0.68954237    -2.36293944     1.05294595
15
water clusters train frame=930
O      2.37069739    -0.00034600     0.06630583
H      1.74834712     0.76815431     0.08904397
H      2.55106510    -0.13900071     1.07517852
O      0.77037419     2.22047015    -0.12956134
H     -0.21712982     1.97392520    -0.10233697
H      0.88408108     2.22809202    -1.16133034
O     -1.91188831     1.32993906     0.18851394
H     -1.86527405     0.45869045     0.06662281
H     -1.81153154     1.53708470     1.14532446
O     -1.84766277    -1.31839077    -0.14902542
H     -0.96759610    -1.70260747    -0.08547544
H     -2.11071311    -1.31339308    -1.15347977
O      0.72590144    -2.14278866     0.18544097
H      1.20934207    -1.39204372     0.13222171
H      0.54434956    -2.38053312     1.06924414
15
water clusters train frame=931
O      2.44901988     0.08208129     0.20705804
H      1.76210799     0.73963347     0.12349034
H      2.53977949    -0.21374998     1.10884176
O      0.74645082     2.27027125    -0.20387831
H     -0.23297875     2.04390061    -0.10790030
H      0.95131361     2.26985080    -1.03876515
O     -1.91483421     1.37969196     0.19303394
H     -1.95039059     0.47525038     0.14923902
H     -1.90981645     1.62014953     1.08841664
O     -1.86953000    -1.43421459    -0.21038309
H     -1.09721086    -1.62038648    -0.01157041
H     -2.11876832    -1.28944948    -1.10023649
O      0.81077834    -2.18391401     0.26855197
H      1.23281242    -1.43361560     0.05080381
H      0.55987355    -2.40730907     1.16368004
15
water clusters train frame=932
O      2.30296345    -0.00842440     0.08619240
H      1.81172991     0.69836063     0.00892261
H      2.47073655    -0.13779390     0.96945465
O      0.60973012     2.25586783    -0.21453599
H     -0.20158777     1.83672193    -0.01672315
H      0.81992911     2.31585875    -1.04942766
O     -1.87116242     1.36884084     0.11748140
H     -1.97410223     0.31197139    -0.00344129
H     -1.75897977     1.49672082     1.20668930
O     -1.95749314    -1.22063779    -0.10040712
H     -1.13213897    -1.72050662    -0.13207003
H     -1.96231752    -1.37539811    -1.20828238
O      0.68169520    -2.30467528     0.20984089
H      1.26963615    -1.46467139    -0.03265595
H      0.52429222    -2.31343363     0.99173552
15
water clusters train frame=933
O      2.36311481     0.01100300     0.19952464
H      1.75696037     0.75814601     0.06770668
H      2.43736598    -0.10515905     1.04541672
O      0.73468233     2.25530100    -0.16320196
H     -0.08222719     1.95755516    -0.06491274
H      0.90656467     2.32870079    -1.08233031
O     -1.89738546     1.37146921     0.11975576
H     -1.90613105     0.36733438     0.07438419
H     -1.87067867     1.57212503     1.08477142
O     -1.95446312    -1.38773665    -0.07540849
H     -0.94606148    -1.66609048    -0.04655216
H     -2.05787571    -1.33507513    -1.01776005
O      0.67053139    -2.27061354     0.18844808
H      1.28177764    -1.46211241     0.04975943
H      0.59784694    -2.41162586     1.06932366
15
water clusters train frame=934
O      2.36219096     0.03064225     0.15180166
H      1.79532008     0.74445388     0.09091557
H      2.47135535    -0.17253615     1.09737719
O      0.71641275     2.27995485    -0.20011621
H     -0.19732774     2.05148976    -0.13307154
H      0.92680761     2.28056296    -1.04390917
O     -1.78360467     1.45743716     0.14160954
H     -2.02207090     0.40575155     0.13269024
H     -1.83440287     1.57231113     1.14480383
O     -1.92917355    -1.31073714    -0.02051853
H     -0.94723021    -1.61187123    -0.14935935
H     -2.00644267    -1.39745291    -1.05627294
O      0.74582668    -2.22632417     0.11823324
H      1.32507793    -1.40490857     0.04674249
H      0.56192487    -2.35964720     1.07191409
15
water clusters train frame=935
O      2.28277677     0.02095395     0.06248894
H      1.90874665     0.81558772     0.03774311
H      2.46227874    -0.10181799     1.13480337
O      0.68071727     2.31602130    -0.06463747
H     -0.07412050     2.03766557    -0.00434183
H      0.94815621     2.34745347    -1.02525553
O     -1.96274632     1.30679293     0.21949940
H     -2.05241696     0.30077741     0.15030377
H     -1.97848548     1.57664210     1.07774757
O     -1.83470718    -1.33553259    -0.22729416
H     -0.92749077    -1.58440576     0.06985373
H     -1.99303126    -1.37315478    -1.08172550
O      0.63480548    -2.15720246     0.19702226
H      1.28539769    -1.60261049     0.16989710
H      0.65920519    -2.32669003     1.09049522
15
water clusters train frame=936
O      2.37266321    -0.08444412     0.16178100
H      1.71050362     0.78023797     0.14183368
H      2.50432926    -0.11587003     1.11692439
O      0.67052183     2.21454076    -0.19490896
H     -0.17025373     1.93255843    -0.13524850
H      0.93315143     2.30845356    -1.15156716
O     -1.94776201     1.36455665     0.10950605
H     -1.89053287     0.48009426     0.11633762
H     -1.87495702     1.58829186     1.08224907
O     -1.93090151    -1.43938250    -0.19552744
H     -0.97376869    -1.64466410    -0.10626181
H     -2.06046712    -1.28800528    -1.05933898
O      0.68939004    -2.30055235     0.14714457
H      1.36571525    -1.48073541     0.22098659
H      0.63794581    -2.33377564     1.11780307
15
water clusters train frame=937
O      2.35036638     0.06246487     0.13026864
H      1.86336250     0.77225227     0.15461016
H      2.46964741    -0.09011400     1.12120327
O      0.76653161     2.27577660    -0.10182291
H     -0.17897434     1.98664196    -0.07947320
H      0.86225266     2.32736341    -1.00863414
O     -1.81812038     1.45148999     0.17930499
H     -1.94550143     0.36125992     0.12406367
H     -1.81431734     1.66354668     1.07624883
O     -1.88239827    -1.36679764    -0.07606475
H     -1.03252055    -1.67129566    -0.05044962
H     -2.17396689    -1.25943904    -1.15474984
O      0.79153151    -2.19293992     0.13991913
H      1.31468300    -1.50319667     0.13539544
H      0.54854915    -2.36633111     1.22710916
15
water clusters train frame=938
O      2.36758800    -0.03904892     0.14312657
H      1.79602766     0.71499882    -0.07672141
H      2.41913978    -0.10073326     1.12424118
O      0.61539496     2.26652035    -0.02109056
H     -0.17901511     1.95848143     0.02040024
H      1.07203034     2.45770547    -1.09713670
O     -1.88138971     1.35934324     0.16337994
H     -1.91008823     0.43992304     0.19767446
H     -1.89831572     1.52614008     1.12716557
O     -1.84862440    -1.29437246    -0.14784730
H     -0.94814600    -1.54771904    -0.15373135
H     -2.03313298    -1.37429749    -1.17686906
O      0.71352523    -2.28037564     0.09081550
H      1.33148106    -1.41994339     0.03175115
H      0.71206165    -2.46912127     1.14550550
15
water clusters train frame=939
O      2.34621404    -0.00169678     0.17875661
H      1.79289716     0.78666682     0.04582813
H      2.39565426    -0.18427796     1.07887144
O      0.70996824     2.16990257    -0.14460520
H     -0.20814832     2.02041891    -0.10384763
H      0.94162986     2.34026994    -1.12326501
O     -1.91787055     1.36039147     0.19409103
H     -1.90787101     0.37026850     0.13436003
H     -1.99416590     1.58148426     1.11984149
O     -1.91540497    -1.38435444    -0.10458360
H     -0.99846871    -1.66946375    -0.02285054
H     -1.95147454    -1.33132626    -1.12911884
O      0.71610421    -2.20053093     0.10561173
H      1.28071012    -1.42712906     0.05338279
H      0.62758461    -2.43840136     1.13595994
15
water clusters train frame=940
O      2.35478563     0.01799071     0.24957358
H      1.85223608     0.75642088     0.08327462
H      2.42266992    -0.18676781     1.14578865
O      0.71031527     2.13846064    -0.05034669
H     -0.07133343     1.90773715    -0.08931678
H      0.92463393     2.27041732    -1.05203594
O     -2.02906000     1.36940267     0.20508424
H     -1.87138982     0.55221887     0.15792897
H     -1.87069774     1.64823922     1.11166078
O     -1.96686169    -1.24005394    -0.20038793
H     -1.04778301    -1.79299660    -0.01677339
H     -2.07559978    -1.25536799    -1.08898529
O      0.74220367    -2.26365998     0.13176491
H      1.21621227    -1.42010689     0.09169273
H      0.64727960    -2.40956992     1.14755050
15
water clusters train frame=941
O      2.39575483    -0.08047886     0.06593869
H      1.71174147     0.78843362     0.18729820
H      2.45550533    -0.09449593     1.14139319
O      0.84716914     2.21617330    -0.07667700
H     -0.19315978     1.91941646    -0.07156929
H      0.97015246     2.29127420    -1.05588874
O     -1.70621224     1.33942816     0.24807266
H     -1.91603897     0.50679757     0.18197013
H     -1.93001825     1.50361777     1.12583001
O     -1.94900541    -1.30092720    -0.15702410
H     -0.99691866    -1.59555284     0.02711877
H     -2.03242657    -1.31941306    -1.19569405
O      0.64321886    -2.15202147     0.08920968
H      1.26226520    -1.37614097     0.21452848
H      0.65841228    -2.30338279     1.10244165
15
water clusters train frame=942
O      2.39906532    -0.04840222     0.17721338
H      1.77735465     0.69157223     0.12139260
H      2.47951287    -0.13736422     0.94584305
O      0.72523895     2.19793443    -0.19986185
H     -0.21279297     1.87668239    -0.11748071
H      0.82728779     2.26359591    -1.09145901
O     -1.90530449     1.43525460     0.08957220
H     -1.98167164     0.41800579     0.06384775
H     -1.88764249     1.56702734     1.12861826
O     -1.85703623    -1.38251645    -0.09619119
H     -1.03386091    -1.72768517    -0.12675296
H     -2.04869646    -1.30883193    -1.07740956
O      0.73188877    -2.25356609     0.14879462
H      1.23242200    -1.52734579     0.09204257
H      0.56524138    -2.41341871     1.11489463
15
water clusters train frame=943
O      2.21388538     0.04111414     0.22889888
H      1.77184568     0.73592924     0.13693252
H      2.39535637    -0.30834963     1.17609184
O      0.69669223     2.18817642    -0.11896420
H     -0.09804051     1.95149233    -0.07538861
H      0.94011009     2.35627022    -1.08533915
O     -1.93078742     1.30226831     0.09488288
H     -1.85667781     0.29672558     0.10143944
H     -1.84795010     1.54251445     1.04675539
O     -1.88501773    -1.50749098    -0.23096361
H     -1.05898694    -1.69439396    -0.09353559
H     -2.14130994    -1.35046185    -1.13842083
O      0.75111957    -2.31314543     0.19543483
H      1.35825389    -1.43841676     0.07905959
H      0.58453099    -2.48661137     1.00970660
15
water clusters train frame=944
O      2.29566487    -0.01578062     0.14467908
H      1.75708245     0.71666861     0.08920868
H      2.39837760    -0.20684755     0.90531949
O      0.77925335     2.32116793    -0.23604642
H     -0.10462925     1.92644632    -0.09656680
H      0.79665774     2.27989495    -1.08423838
O     -1.93497011     1.34595984     0.08688872
H     -1.83245493     0.41934708     0.08370343
H     -1.79776950     1.49503625     1.17564583
O     -1.87017968    -1.25221929    -0.14376960
H     -1.05607396    -1.64021872    -0.27036201
H     -2.08000682    -1.34918838    -1.20916919
O      0.74993766    -2.22091354     0.18496227
H      1.37400353    -1.50292997     0.17277688
H      0.57158428    -2.37348886     1.09517880
15
water clusters train frame=945
O      2.30800942     0.03452523     0.08623996
H      1.83335279     0.79645546     0.08947892
H      2.44520642    -0.15380618     1.09606163
O      0.71624707     2.27876286    -0.15028712
H     -0.22528166     2.00733321    -0.07589284
H      0.89512135     2.29916593    -1.07424827
O     -1.87942500     1.35113746     0.16230164
H     -1.81959232     0.39049181     0.09771809
H     -1.98596575     1.63037891     1.13280203
O     -1.86251173    -1.31151375    -0.12137333
H     -1.07606626    -1.68446728    -0.18733012
H     -2.11202562    -1.32476246    -1.17314107
O      0.72677659    -2.18034196     0.14960284
H      1.22856250    -1.46481722     0.10032733
H      0.68877546    -2.44403545     1.10171149
15
water clusters train frame=946
O      2.38679469     0.09378185     0.21591504
H      1.86154096     0.79064206     0.08623297
H      2.35040860    -0.14954590     1.05111487
O      0.68273244     2.20758814    -0.10150003
H     -0.11984827     1.98507760     0.04002765
H      0.85999582     2.31837804    -1.03274552
O     -1.91889042     1.41412008     0.12169233
H     -1.97746378     0.40778523     0.06090886
H     -1.99535808     1.46838355     1.01103830
O     -1.83658355    -1.29887890    -0.15529470
H     -1.10661023    -1.65953210    -0.12070530
H     -2.10881179    -1.30195029    -1.11147728
O      0.73133415    -2.16007571     0.18371159
H      1.31453753    -1.43832911     0.12635514
H      0.60120224    -2.49624229     1.09232671
15
water clusters train frame=947
O      2.33240453     0.18739717     0.02972239
H      1.77247239     0.69941377     0.16665788
H      2.36428991    -0.18929574     1.17767185
O      0.86751809     2.17971556    -0.24908279
H     -0.15816519     1.88908192    -0.17342471
H      0.91632454     2.20442521    -1.29829562
O     -1.90977661     1.39039457     0.17996662
H     -1.91998364     0.47235477     0.13964336
H     -1.97497755     1.51950611     1.11467657
O     -1.87889819    -1.46888341    -0.01127083
H     -1.01934150    -1.74571932    -0.00245822
H     -2.00809690    -1.44815014    -0.85361414
O      0.82835283    -2.21787626     0.19342475
H      1.30545965    -1.43976036     0.12113596
H      0.66093771    -2.33124927     1.08821922
15
water clusters train frame=948
O      2.32366172    -0.07735574     0.16244417
H      1.77943867     0.78372607     0.05310643
H      2.43360352    -0.17135975     1.05553648
O      0.73385187     2.19282802    -0.09027686
H     -0.17746596     1.91849032    -0.09302581
H      0.86648571     2.27709702    -1.02064483
O     -1.88967404     1.44280471     0.11529490
H     -1.94886434     0.42317517     0.12652891
H     -1.88524190     1.63253142     1.04433983
O     -1.92939095    -1.34534721    -0.14607942
H     -0.95534203    -1.64056616    -0.06519766
H     -2.03765909    -1.26473984    -1.09134961
O      0.73144398    -2.22061105     0.19736792
H      1.23974295    -1.44019796     0.04476116
H      0.68052863    -2.40277110     1.06634423
15
water clusters train frame=949
O      2.32949281     0.02269415     0.21512919
H      1.73166419     0.83221116     0.09602558
H      2.38172081    -0.07977946     1.04566644
O      0.63923124     2.43249956    -0.14761320
H     -0.21892564     1.91864537    -0.15381010
H      0.91447078     2.27754339    -1.10666895
O     -1.92103249     1.34555965     0.06731507
H     -1.81374386     0.43121557     0.08752990
H     -1.83248718     1.52896921     1.01338134
O     -1.88867877    -1.37963623    -0.20244477
H     -1.05300504    -1.67661257    -0.04730499
H     -2.07077026    -1.40479470    -0.96330191
O      0.59996695    -2.21069610     0.14355560
H      1.20591460    -1.55596041     0.15966352
H      0.60343760    -2.38498355     1.07115428
15
water clusters train frame=950
O      2.35249355     0.05943887     0.01825222
H      1.80358184     0.89952316     0.05353725
H      2.45230510    -0.17524711     1.10784576
O      0.66661275     2.14173843    -0.05757022
H     -0.27139255     2.00506054    -0.14073918
H      0.92126505     2.23142538    -1.04453118
O     -1.82665069     1.33921903     0.18156719
H     -1.92075335     0.51701361     0.12434056
H     -1.90955861     1.48689478     1.08211061
O     -1.96184984    -1.36131141    -0.03203976
H     -1.06548350    -1.78061217    -0.01439464
H     -2.06086922    -1.31145192    -1.18383531
O      0.62142111    -2.26022228     0.17090239
H      1.29865146    -1.44956124     0.10917258
H      0.86977776    -2.37188586     1.10240726
15
water clusters train frame=951
O      2.37132164     0.06175433     0.21993749
H      1.77148535     0.78192339     0.12467705
H      2.47895670    -0.12369217     1.07462223
O      0.74879963     2.23506383    -0.04440397
H     -0.14735229     1.94103313    -0.06636908
H      0.84927115     2.25325863    -1.05377729
O     -1.88348883     1.39443037     0.10398087
H     -1.92185235     0.43999469     0.15661117
H     -1.83352988     1.57521797     1.04892467
O     -1.88005691    -1.38473824    -0.10700583
H     -1.04259596    -1.67294196    -0.12357365
H     -2.09422645    -1.34881622    -1.03073213
O      0.73618121    -2.23077067     0.17957842
H      1.31966958    -1.46785855     0.06967289
H      0.66506440    -2.37350853     1.07946144
15
water clusters train frame=952
O      2.44051428    -0.04070219     0.14121444
H      1.83544216     0.70715007     0.15701976
H      2.44710568    -0.12526023     1.09723567
O      0.74404252     2.11915012    -0.16989149
H     -0.08523944     1.88836906    -0.07516204
H      0.82729132     2.24003509    -1.14356052
O     -1.88574087     1.32320807     0.21162717
H     -1.86459552     0.48940970     0.12184799
H     -1.91525192     1.52776956     1.07834720
O     -1.98957267    -1.34059397    -0.18080719
H     -1.00227460    -1.66624831    -0.08983466
H     -2.16692778    -1.27680114    -1.12723790
O      0.71329879    -2.22272524     0.24639431
H      1.31532180    -1.49089103     0.07262685
H      0.56746750    -2.43469510     1.07479698
15
water clusters train frame=953
O      2.22373601    -0.04945550     0.23662638
H      1.76247668     0.69040426     0.12022536
H      2.44800384    -0.11075275     1.04349677
O      0.69904150     2.29836872    -0.20037797
H     -0.20767879     1.99521837     0.06343339
H      0.91109609     2.28245677    -1.08982394
O     -1.95332603     1.35561480     0.23104926
H     -1.78039516     0.48848236     0.11969450
H     -1.92151870     1.58130521     1.11445588
O     -1.79278601    -1.25304368    -0.09589953
H     -0.83036009    -1.59636201     0.05584793
H     -1.92482440    -1.29434522    -1.05682614
O      0.84423955    -2.14245079     0.20362971
H      1.41025659    -1.30927614     0.03429908
H      0.59633897    -2.26792762     1.17496893
15
water clusters train frame=954
O      2.32166921    -0.01136217     0.14782103
H      1.75378132     0.75353665     0.03459723
H      2.47789194    -0.16968668     1.05571872
O      0.72945791     2.24788067    -0.14360569
H     -0.30642182     1.90871569    -0.11444745
H      0.93972962     2.32758567    -1.07858275
O     -1.89480064     1.36339245     0.12599171
H     -1.92071470     0.45908434     0.10289204
H     -1.91706889     1.62799906     1.01446462
O     -1.86027698    -1.32976909    -0.14275362
H     -1.00597187    -1.68113250    -0.15511154
H     -2.01201078    -1.35166054    -1.02002709
O      0.71322606    -2.26038933     0.17653386
H      1.23353439    -1.50309055     0.10914799
H      0.52051932    -2.35969723     1.03655030
15
water clusters train frame=955
O      2.35508596    -0.06631919     0.12617882
H      1.74580326     0.72663337     0.07915293
H      2.43700363    -0.11780022     1.12332663
O      0.72839941     2.35690220    -0.11145293
H     -0.21365197     1.90438451    -0.12225383
H      0.90598326     2.36266667    -1.04475439
O     -2.02050675     1.33841851     0.13920595
H     -1.94661574     0.33526951     0.13942342
H     -2.02854136     1.58725614     0.96652234
O     -1.96268165    -1.44512273    -0.12123064
H     -0.98721278    -1.65484740    -0.08689771
H     -2.14989064    -1.26759524    -1.13439211
O      0.68885543    -2.19046468     0.10677290
H      1.30737307    -1.44792057     0.00942356
H      0.53765312    -2.47702348     1.07292655
15
water clusters train frame=956
O      2.36491358    -0.11225980     0.12035583
H      1.90905787     0.56103053     0.10583291
H      2.54939747    -0.16666240     1.17820752
O      0.70979374     2.18679319    -0.10016342
H     -0.15676999     2.03789104    -0.06883368
H      0.99469862     2.35394904    -0.98111245
O     -1.78388324     1.50300612     0.29152070
H     -1.83612289     0.49830808     0.01949617
H     -1.84281541     1.56286623     1.11326841
O     -1.79368378    -1.23300658    -0.17640397
H     -1.10295898    -1.70429501    -0.05728826
H     -2.03918732    -1.21133954    -1.00696156
O      0.84146668    -2.24939255     0.08179764
H      1.27658905    -1.47117111    -0.00815027
H      0.65960418    -2.41086553     1.18153565
15
water clusters train frame=957
O      2.29839363    -0.01429919     0.11886750
H      1.75267506     0.74039400     0.08513761
H      2.48681104    -0.09255715     1.11210867
O      0.71752826     2.24715573    -0.09355734
H     -0.19599002     1.92496330    -0.16184747
H      0.91958803     2.27370173    -1.05306704
O     -1.85447304     1.40345615     0.15458815
H     -1.90570506     0.37329658     0.14618986
H     -1.95495757     1.57053051     1.02082906
O     -1.92265246    -1.42245543    -0.18914260
H     -1.00594118    -1.67896515    -0.03953802
H     -2.17505425    -1.27924078    -1.05821961
O      0.71798848    -2.22920826     0.14098706
H      1.34121801    -1.50341555     0.13571641
H      0.60574589    -2.36700142     1.11926719
15
water clusters train frame=958
O      2.46711935     0.06929187     0.16916780
H      1.85156587     0.72633325     0.08244097
H      2.40733160    -0.17733982     1.19336652
O      0.66520667     2.15332435    -0.11476514
H     -0.14033707     1.94881450    -0.18886772
H      0.84060056     2.25426989    -1.10730222
O     -1.96291252     1.34891574     0.10213057
H     -1.90481865     0.51333730     0.10306340
H     -1.81877323     1.63546709     1.13830881
O     -1.87464436    -1.34684897    -0.10664665
H     -0.99787950    -1.62801614    -0.06908216
H     -2.11799291    -1.29616972    -1.09173042
O      0.79046670    -2.23254890     0.14035384
H      1.25871487    -1.47446838     0.16292513
H      0.57725914    -2.36504976     1.02563886
15
water clusters train frame=959
O      2.36724565     0.07579103     0.09624817
H      1.69376352     0.77222489     0.04929651
H      2.42103113    -0.22851802     0.96904427
O      0.68312947     2.15876624    -0.13586885
H     -0.14754193     2.08597134    -0.18404846
H      0.95352450     2.33166216    -1.02933099
O     -1.79194169     1.34907795     0.22307559
H     -1.98231903     0.56816406    -0.04709181
H     -1.84844881     1.61161551     1.04005011
O     -1.87398525    -1.26992504    -0.22527689
H     -1.00962119    -1.62409519    -0.08604037
H     -2.06779748    -1.42790730    -1.05745164
O      0.77269947    -2.28026722     0.13882431
H      1.16230996    -1.56947346     0.11514243
H      0.67739565    -2.41050602     1.11483729
15
water clusters train frame=960
O      2.32551200    -0.00672114     0.08733950
H      1.84493882     0.75834676     0.09776379
H      2.46274643    -0.15911186     1.11266653
O      0.71851144     2.22621231    -0.15930595
H     -0.18518768     1.95658652    -0.11397520
H      0.94203916     2.36973144    -1.03262679
O     -1.92424643     1.42173932     0.08740898
H     -1.83908757     0.44719027     0.11864731
H     -1.84965992     1.50231090     1.07559705
O     -1.91287998    -1.32214898    -0.19723589
H     -1.04098274    -1.67724518    -0.15566580
H     -2.03986935    -1.33475154    -1.07068022
O      0.67745313    -2.23513634     0.07609104
H      1.30659111    -1.46866553     0.06371789
H      0.61319155    -2.39606004     1.13541917
15
water clusters train frame=961
O      2.33273591    -0.06435351     0.23048783
H      1.87489602     0.71597787     0.13663165
H      2.51455727    -0.21369640     1.00936798
O      0.68649707     2.25415144    -0.16294200
H     -0.09864502     1.82787498    -0.10368195
H      0.89102364     2.30748885    -1.11788643
O     -1.90336219     1.41244594     0.19451341
H     -1.95221124     0.44966181     0.09264552
H     -1.85594974     1.46684226     1.09226057
O     -1.78949826    -1.45876762    -0.04995396
H     -1.06939555    -1.68479363    -0.12431438
H     -2.11689304    -1.28466413    -1.08581615
O      0.65755464    -2.28230042     0.14272596
H      1.24930137    -1.51517933     0.12060620
H      0.61201734    -2.30904820     1.11235098
15
water clusters train frame=962
O      2.40829949    -0.00850972     0.14739813
H      1.83841214     0.77998521     0.00580500
H      2.59594100    -0.14198662     1.11053734
O      0.83412019     2.27019080    -0.14753901
H     -0.31014126     2.07469577    -0.08618435
H      0.77137477     2.44231915    -1.07528410
O     -1.89097043     1.22450327     0.16051565
H     -1.86449194     0.40207977     0.21790620
H     -1.81159663     1.51631860     1.17921819
O     -1.88448194    -1.45194715    -0.13988713
H     -1.13484922    -1.62889080     0.01998000
H     -2.12750044    -1.33221356    -1.07651267
O      0.70130767    -2.22409684     0.26834060
H      1.20875397    -1.49174011     0.05887434
H      0.65390796    -2.40926376     1.14983199
15
water clusters train frame=963
O      2.34566586    -0.03915188     0.11890904
H      1.81625688     0.78488808     0.16792811
H      2.37669392    -0.14909486     1.05283738
O      0.74121506     2.28112370    -0.17902504
H     -0.20954132     1.88617591    -0.12971490
H      0.92868965     2.24967314    -1.11515511
O     -1.76383678     1.36778244     0.15488393
H     -1.90097233     0.50601649     0.08028876
H     -1.87613121     1.61266003     1.10157073
O     -1.89826469    -1.41448149    -0.16913431
H     -0.93631709    -1.63805235    -0.14667695
H     -2.13218804    -1.30966738    -1.04899163
O      0.65213546    -2.23820943     0.18480684
H      1.28240826    -1.45030464     0.07902786
H      0.66642240    -2.38033844     1.04695894
15
water clusters train frame=964
O      2.39896237     0.08310093     0.09403284
H      1.74789203     0.91777825     0.03469288
H      2.50881272    -0.10367897     1.22727353
O      0.74159879     2.20057119    -0.19053389
H     -0.27736666     1.82575720    -0.16742149
H      0.84261901     2.26979424    -1.02793695
O     -1.87025006     1.32114551     0.13561473
H     -1.83607371     0.39748148     0.06146933
H     -1.82908520     1.57927060     1.02530080
O     -1.87846201    -1.39825355    -0.05541182
H     -1.06744742    -1.68400596    -0.03618028
H     -2.15064061    -1.35019511    -1.08308121
O      0.76326148    -2.25803409     0.06390296
H      1.24686704    -1.42185540     0.11340744
H      0.62316368    -2.38446930     1.14698823
15
water clusters train frame=965
O      2.23470676     0.02429287    -0.00191185
H      1.75720431     0.73623041     0.17244740
H      2.56757845    -0.03356190     1.11241636
O      0.72079685     2.30466545    -0.12768244
H     -0.05915478     1.94510697     0.00538291
H      0.86409207     2.26858502    -1.05026115
O     -1.97178035     1.38313469     0.24181489
H     -1.95355771     0.26247132     0.12278267
H     -1.83403042     1.55203723     1.10248731
O     -1.90503815    -1.44673775    -0.13407772
H     -0.91962791    -1.57600363    -0.06183236
H     -2.09201380    -1.31302193    -1.05204786
O      0.66161126    -2.31815965     0.07464721
H      1.29897135    -1.36333393     0.13242346
H      0.62026764    -2.46074050     1.27837675
15
water clusters train frame=966
O      2.37714896    -0.00283869     0.15747826
H      1.83978354     0.74652513     0.07608089
H      2.43467539    -0.12058061     1.09612229
O      0.72033467     2.29847304    -0.11706824
H     -0.16444106     1.94499472    -0.11874058
H      0.91114198     2.27600432    -1.05585421
O     -1.94266471     1.41955666     0.16709531
H     -1.90206682     0.42895059     0.12242854
H     -1.89275955     1.55643820     1.12211005
O     -1.90760154    -1.41602583    -0.18845746
H     -1.00792835    -1.74703656    -0.08346120
H     -2.06446940    -1.28371368    -1.13177815
O      0.65406071    -2.24522349     0.16070381
H      1.33092295    -1.44098625     0.06653510
H      0.61758330    -2.39652995     1.06912604
15
water clusters train frame=967
O      2.33043709     0.08254420     0.11445990
H      1.76445560     0.76864467     0.03931333
H      2.48952441    -0.15609318     1.03538637
O      0.72087966     2.35456026    -0.14790236
H     -0.23607763     1.88759977    -0.09625093
H      1.01632090     2.26961633    -1.16246677
O     -1.90148437     1.37891883     0.25850909
H     -1.92757466     0.46318675     0.02987573
H     -1.90419831     1.50103365     1.13731444
O     -1.87916935    -1.27369850    -0.11478093
H     -0.95858371    -1.78187153    -0.11761102
H     -2.09471362    -1.36927462    -1.09030319
O      0.72347246    -2.24324070     0.17921916
H      1.33767893    -1.41323736     0.03928551
H      0.66033624    -2.39644092     1.11706350
15
water clusters train frame=968
O      2.21911674     0.06057383     0.12858286
H      1.87627269     0.87421123     0.06063736
H      2.68540107    -0.12609331     0.97199460
O      0.75566100     2.17338860    -0.06203466
H     -0.32186976     1.98194366    -0.05795379
H      0.83161483     2.31396230    -1.02683296
O     -1.96637790     1.40157736     0.11708663
H     -1.94899906     0.34311281     0.08046229
H     -1.91068083     1.53549200     1.26394158
O     -2.00757814    -1.36988868    -0.24571787
H     -1.05318471    -1.57316164    -0.24506708
H     -2.15499770    -1.16388890    -0.96688340
O      0.69169035    -2.30588095     0.24163968
H      1.28111582    -1.33106988     0.18230570
H      0.54272344    -2.34393226     1.20654237
15
water clusters train frame=969
O      2.34472909     0.04592511     0.13823066
H      1.87367110     0.78803704     0.05250096
H      2.45111341    -0.09583613     1.02350607
O      0.68804559     2.27621121    -0.11814542
H     -0.18803286     1.98088365    -0.03505562
H      0.89638344     2.31172535    -1.08390786
O     -1.83675883     1.38558495     0.13971166
H     -1.88125917     0.44457210     0.13744829
H     -1.91919863     1.64698370     1.07406612
O     -1.83439092    -1.41010640    -0.11718191
H     -0.98380155    -1.72129891    -0.06638586
H     -2.11697064    -1.36610245    -1.08593177
O      0.76923315    -2.19938557     0.17843835
H      1.27565974    -1.42086048     0.09750235
H      0.56661195    -2.38783579     0.99653383
15
water clusters train frame=970
O      2.37594537     0.09283343     0.28181415
H      1.66528370     0.81903703     0.15251760
H      2.43435389    -0.00151790     1.05381258
O      0.76407488     2.27637183    -0.21983252
H     -0.17459315     1.92349335    -0.05821672
H      0.80942483     2.26136953    -1.11097419
O     -1.87282603     1.29349534     0.06464936
H     -1.81317099     0.43684278     0.18741916
H     -1.93042800     1.69515149     1.13768346
O     -1.87192941    -1.38695602    -0.20362716
H     -0.94317034    -1.70544267    -0.13282042
H     -2.09177135    -1.34917277    -1.08430189
O      0.69653130    -2.19387281     0.06736682
H      1.23979596    -1.56299195     0.05530030
H      0.60129305    -2.27040840     1.19639590
15
water clusters train frame=971
O      2.34354655    -0.15580934     0.09765442
H      1.72952398     0.82015812     0.02388608
H      2.43433469    -0.22585730     1.06212904
O      0.71406314     2.31356330    -0.06821126
H     -0.18906974     1.86040998    -0.15433838
H      0.80648208     2.28369533    -1.20303060
O     -1.98733834     1.40414080     0.26685778
H     -1.98768091     0.34489909     0.19616442
H     -1.91247545     1.63464790     1.05658075
O     -1.91069314    -1.35469341    -0.05004788
H     -1.01383986    -1.67567253    -0.06634169
H     -2.12138149    -1.40100651    -1.08916431
O      0.95154538    -2.13206854     0.10444221
H      1.35977201    -1.44808863     0.04227324
H      0.63288662    -2.52314185     1.05419684
15
water clusters train frame=972
O      2.35995325    -0.01905715     0.15685786
H      1.88120320     0.77589455     0.16233839
H      2.48349303    -0.13962156     1.07888234
O      0.70385418     2.23034549    -0.16036062
H     -0.15530123     1.92732131    -0.13802879
H      0.85784175     2.32662121    -1.12031461
O     -1.91217749     1.42439447     0.16047209
H     -1.88499608     0.45541586     0.09087646
H     -1.93775068     1.57416116     1.12559727
O     -1.78304198    -1.31764190    -0.17264444
H     -1.02983259    -1.66544031    -0.09632418
H     -2.02593886    -1.29684217    -0.99139113
O      0.79165708    -2.22519716     0.13735498
H      1.30530805    -1.48565656     0.06829427
H      0.68361172    -2.32623263     1.04643935
15
water clusters train frame=973
O      2.28401272     0.12405327     0.18311318
H      1.81485767     0.74272027     0.06792419
H      2.38296271    -0.13845209     1.08474276
O      0.70891224     2.24746736    -0.14173677
H     -0.24538467     1.94773293    -0.08248412
H      0.86893289     2.26859512    -1.05781738
O     -1.92507352     1.42876642     0.17813154
H     -1.93986658     0.38888952     0.11031746
H     -1.78251581     1.50646415     1.08770266
O     -1.98193557    -1.37335509    -0.15672004
H     -0.98867626    -1.79432461    -0.05205550
H     -2.06530431    -1.33285897    -1.11295441
O      0.68861602    -2.28752902     0.15527944
H      1.29186132    -1.46547054     0.03390600
H      0.51807872    -2.37960619     1.02287637
15
water clusters train frame=974
O      2.39549227    -0.04393069     0.12869419
H      1.77566605     0.72786283     0.10515696
H      2.37929304    -0.19493813     1.06658446
O      0.79753633     2.31120768    -0.27500093
H     -0.09728615     1.97504066    -0.18572536
H      0.84281120     2.31402146    -1.19767275
O     -1.86295479     1.46690442     0.20964445
H     -1.72104134     0.40292376     0.09771526
H     -1.91482326     1.61954632     1.12228626
O     -1.87062871    -1.35679095    -0.18416218
H     -0.91834657    -1.58493812    -0.08638679
H     -2.15566504    -1.32234390    -1.04255668
O      0.79316982    -2.24347411     0.12304856
H      1.18010005    -1.52952139     0.11480093
H      0.57487711    -2.34747794     1.06454836
15
water clusters train frame=975
O      2.34785063    -0.07393675     0.10382046
H      1.82372257     0.69904820     0.12124109
H      2.42830329    -0.16164548     1.10934247
O      0.73051645     2.21851947    -0.16307116
H     -0.12572337     1.82554125    -0.14082993
H      0.90954810     2.31345774    -1.03467946
O     -1.86509827     1.39277900     0.14018913
H     -1.87056212     0.45751459     0.14569900
H     -1.87773289     1.57655241     1.11070753
O     -1.90254509    -1.40071466    -0.13954717
H     -0.97702201    -1.70829558    -0.13135996
H     -2.00569633    -1.34207565    -1.11227209
O      0.72966748    -2.28491598     0.14886178
H      1.31398565    -1.48810599     0.08157334
H      0.65641195    -2.42574379     1.10418040
15
water clusters train frame=976
O      2.38077197    -0.02281101     0.07476849
H      1.77188795     0.68068332     0.09862177
H      2.49284411    -0.13097406     1.06703101
O      0.68942869     2.21821940    -0.16755561
H     -0.25975015     2.00957108    -0.11146916
H      0.90473884     2.40775333    -1.08274738
O     -1.89022388     1.42740784     0.15319962
H     -1.86363639     0.28979386     0.09135607
H     -1.93295277     1.57409906     1.17532498
O     -1.85186614    -1.47269577    -0.22237679
H     -1.01881364    -1.64063451    -0.14485464
H     -2.01839392    -1.30908561    -1.06968577
O      0.63510487    -2.28409474     0.12855308
H      1.31127845    -1.44626887     0.05206082
H      0.53061096    -2.40112602     1.07961450
15
water clusters train frame=977
O      2.29048323    -0.13282419     0.08444538
H      1.87758755     0.73742729     0.09733279
H      2.41110616    -0.28015609     1.02688507
O      0.62842978     2.14591930    -0.22112883
H     -0.25516685     1.98505708    -0.03907500
H      0.89032015     2.25399195    -1.15765390
O     -2.06874867     1.30902060     0.10483311
H     -1.93723776     0.35936573     0.19097237
H     -1.86646139     1.46619243     1.15494938
O     -1.82019000    -1.43674311     0.01508771
H     -1.04569411    -1.72595224    -0.05454165
H     -2.11354899    -1.47515357    -1.09078759
O      0.66919013    -2.24886853     0.19069876
H      1.40217784    -1.41596316     0.10219727
H      0.54288899    -2.49570343     1.09532743
15
water clusters train frame=978
O      2.33759768    -0.04416663     0.11711972
H      1.83632679     0.69891133     0.10744542
H      2.47831950    -0.18445835     1.04236177
O      0.70291032     2.20750704    -0.16558467
H     -0.19941525     1.93155260    -0.10358204
H      0.96015412     2.27053483    -1.00316054
O     -1.95086936     1.38547071     0.15929348
H     -1.84777022     0.41341421     0.13355066
H     -1.90359315     1.53450362     1.07471799
O     -1.86436626    -1.31181107    -0.16457416
H     -1.01553286    -1.66524428    -0.06852557
H     -2.04663369    -1.33591981    -1.00763117
O      0.71255282    -2.17332609     0.20983433
H      1.21032647    -1.48696907     0.04526625
H      0.68257141    -2.43959263     1.06056977
15
water clusters train frame=979
O      2.24809791    -0.00075526     0.15903609
H      1.84278844     0.73747912     0.08458387
H      2.41138130    -0.17402887     1.08284536
O      0.73722843     2.25603997    -0.17131428
H     -0.08410920     1.83847680    -0.16211034
H      0.90546235     2.32015381    -1.14151689
O     -1.93811609     1.41801844     0.07619125
H     -1.79886786     0.37316241     0.01893313
H     -1.87047434     1.48706345     1.05228112
O     -1.96483003    -1.49951812    -0.11365934
H     -1.00853405    -1.75892047    -0.11714893
H     -2.10760867    -1.19113013    -1.05421767
O      0.79558407    -2.25127129     0.17514268
H      1.33568688    -1.39285004     0.16150600
H      0.59410702    -2.46299274     1.26488455
15
water clusters train frame=980
O      2.34205904     0.13644285     0.07215488
H      1.86410918     0.75693092     0.16205714
H      2.61285007    -0.08146936     1.14651520
O      0.74682112     2.26410671    -0.06515300
H     -0.23110082     1.87623559    -0.06273773
H      0.83050955     2.27926436    -1.18009433
O     -1.90552696     1.34773686     0.17534987
H     -1.97115698     0.56523411     0.04140614
H     -1.94298993     1.77560839     1.14510838
O     -1.96232292    -1.22923948    -0.11407963
H     -1.09733365    -1.59813847     0.01804756
H     -1.93758160    -1.39184322    -1.03243979
O      0.82523061    -2.23523384     0.22037279
H      1.25496409    -1.34676606     0.12711480
H      0.60781212    -2.16985826     0.95611927
15
water clusters train frame=981
O      2.30514689     0.02080187     0.15841371
H      1.79929174     0.73838623     0.08183834
H      2.47305667    -0.15011815     1.16332834
O      0.65984116     2.21783602    -0.14184954
H     -0.16869384     1.97411201    -0.11427753
H      0.93487342     2.24801340    -1.00737454
O     -1.94431735     1.37183351     0.25758254
H     -1.84714334     0.53757302     0.10890813
H     -1.83863036     1.51020183     1.07250667
O     -1.96075221    -1.41095714    -0.15327513
H     -0.95817088    -1.63133912    -0.04573547
H     -2.03356326    -1.34449170    -1.06269461
O      0.71848951    -2.28851951     0.15447276
H      1.31270846    -1.49281081     0.03996228
H      0.56253739    -2.41571865     1.02373103
15
water clusters train frame=982
O      2.37671400     0.04856810     0.16540760
H      1.73878228     0.73566660     0.02862251
H      2.44107931    -0.14813186     1.12176193
O      0.72998567     2.26660404    -0.15066540
H     -0.24914299     1.88867173    -0.14609140
H      0.91139034     2.41498640    -1.00139656
O     -1.99584217     1.40801392     0.15487048
H     -1.85904125     0.33752601     0.13202291
H     -1.77374153     1.63586417     1.03144493
O     -1.88896449    -1.38252368    -0.13523911
H     -0.94943381    -1.65157820    -0.15707253
H     -2.00874330    -1.31881241    -1.09854641
O      0.78926870    -2.17944655     0.17058007
H      1.34651348    -1.37769243     0.14761239
H      0.71556975    -2.38020806     1.05798729
15
water clusters train frame=983
O      2.34752811    -0.11721782     0.28906827
H      1.79935571     0.88788430     0.09295415
H      2.45188741    -0.20629004     1.18182110
O      0.74754718     2.34668133    -0.12926241
H     -0.04546332     1.78669585    -0.16499125
H      0.68124099     2.13253431    -1.23092325
O     -2.02969156     1.40513651    -0.03120250
H     -1.81850952     0.41051966     0.23152861
H     -2.01024005     1.53289286     1.18169674
O     -1.87448583    -1.32457475    -0.03870237
H     -0.83270658    -1.73949875    -0.08163768
H     -1.90577611    -1.25968058    -1.10488130
O      0.65421370    -2.12597537     0.15394377
H      1.23772095    -1.46292635     0.20572221
H      0.58683828    -2.51376529     1.16852944
15
water clusters train frame=984
O      2.28770400     0.01827955     0.14905528
H      1.78939294     0.75269659     0.10814676
H      2.50853724    -0.13830834     1.10643304
O      0.74913145     2.22912957    -0.08890880
H     -0.26453125     1.90862257    -0.03705265
H      0.87730036     2.26935614    -0.97001105
O     -1.91665689     1.37038980     0.14305215
H     -1.90427652     0.44816028     0.12081389
H     -1.89242328     1.60404669     1.11191309
O     -1.94548233    -1.42299100    -0.12708680
H     -0.97570114    -1.65720872    -0.06830232
H     -2.09773196    -1.30646616    -1.10198413
O      0.78595226    -2.19017857     0.12537429
H      1.30494699    -1.46049597     0.09547941
H      0.58457020    -2.32816486     1.07566099
15
water clusters train frame=985
O      2.36184464     0.07061826     0.23972977
H      1.85230275     0.72902755     0.11485992
H      2.42884820    -0.16421448     1.12143094
O      0.72379171     2.30652347    -0.08637368
H     -0.13649107     1.90415978    -0.08599745
H      0.94638280     2.27887914    -1.00955148
O     -1.99992830     1.43200083     0.14245912
H     -2.03624095     0.41332949     0.11746500
H     -1.96891358     1.48311699     1.11000977
O     -1.81160988    -1.40577697    -0.13796342
H     -1.04431480    -1.70085243     0.00790375
H     -2.05303096    -1.38402015    -0.96028613
O      0.71071550    -2.22421482     0.07544071
H      1.27874384    -1.40675971     0.03650667
H      0.60274361    -2.40185140     1.09294083
15
water clusters train frame=986
O      2.39603017    -0.04097664     0.08013221
H      1.96599092     0.84778167     0.18641534
H      2.38686191    -0.06358810     1.04049233
O      0.64625767     2.28814254    -0.19415241
H     -0.35965462     1.88631513     0.01613859
H      0.81165951     2.62489037    -1.03993175
O     -1.78539627     1.38672614    -0.01431913
H     -1.91468976     0.43113744     0.13855280
H     -1.78287877     1.66165365     1.02817260
O     -1.81165355    -1.49336038    -0.17798401
H     -0.99691178    -1.61483272    -0.19732230
H     -2.19437575    -1.35017731    -1.07894257
O      0.71872292    -2.25075397     0.24345133
H      1.19558375    -1.33285050     0.17734773
H      0.67152324    -2.41700862     0.97448233
15
water clusters train frame=987
O      2.35555401     0.05989287     0.17168839
H      1.79403859     0.76064917     0.14414601
H      2.40916584    -0.13023961     1.13953014
O      0.79707766     2.21782237    -0.16634204
H     -0.22335206     1.93508815    -0.14525172
H      0.85989473     2.27905730    -1.08755433
O     -1.90848847     1.38909503     0.17960887
H     -1.93590881     0.47352882     0.14607184
H     -1.88623124     1.64257571     1.08524844
O     -1.90854139    -1.36169601    -0.21405035
H     -0.94747044    -1.65610835    -0.03997845
H     -2.05088142    -1.28737616    -1.13345662
O      0.70201581    -2.27105125     0.04192672
H      1.29018185    -1.45372584     0.13207246
H      0.57687928    -2.32005546     1.09578984
15
water clusters train frame=988
O      2.35897296     0.03936603     0.13271132
H      1.73144591     0.69528545     0.07918284
H      2.34672932    -0.15938662     1.07645024
O      0.66901908     2.21526420    -0.18490080
H     -0.14122257     1.89137029    -0.06536716
H      0.86984091     2.31813765    -1.06785493
O     -1.92297039     1.44135299     0.14484411
H     -1.89705754     0.56901778     0.14349723
H     -1.77873693     1.52542500     1.03896842
O     -1.85684314    -1.32512968    -0.25508526
H     -0.96503285    -1.75098661    -0.13797699
H     -2.04264572    -1.30915851    -1.03782770
O      0.70217709    -2.28935166     0.10766932
H      1.24298736    -1.65288724     0.14447924
H      0.59239413    -2.32510928     1.06611987
15
water clusters train frame=989
O      2.33795240     0.10062595     0.06024902
H      1.75092864     0.86538989     0.14319084
H      2.53223560    -0.18012210     0.97438755
O      0.84943205     2.29075698    -0.15630854
H     -0.30326183     1.92926776    -0.04332176
H      0.92517411     2.28664535    -1.10106528
O     -1.77329950     1.39544980     0.16067365
H     -2.03192886     0.45939561     0.02802348
H     -1.78460320     1.68616127     1.19466618
O     -1.89991432    -1.45105177    -0.13594548
H     -1.01273480    -1.71479414    -0.03496003
H     -2.08399759    -1.40537262    -1.11156205
O      0.69826805    -2.21347235     0.10609105
H      1.43265971    -1.35391944     0.16245795
H      0.68416192    -2.27108529     0.96883390
15
water clusters train frame=990
O      2.28896158    -0.02484037     0.19004492
H      1.72470589     0.79366594     0.12474953
H      2.45364672    -0.19478588     1.09548883
O      0.68273259     2.24214112    -0.18623470
H     -0.14840941     1.92405837    -0.17933409
H      0.92105938     2.25856195    -1.10882345
O     -1.89594051     1.43570553     0.11579788
H     -1.91841158     0.43657035     0.13323002
H     -1.92813806     1.45718183     1.11495005
O     -1.87504721    -1.41062553    -0.17125805
H     -1.01223734    -1.66312564    -0.11920122
H     -2.09447480    -1.25453806    -1.11196611
O      0.64157917    -2.25675354     0.13758392
H      1.28292298    -1.48913778     0.13583531
H      0.61726005    -2.41600241     1.05205862
15
water clusters train frame=991
O      2.36134786     0.02609419     0.10975463
H      1.73899388     0.79648134     0.05014681
H      2.33768097    -0.08299521     1.15422170
O      0.71130587     2.30555672    -0.15960015
H     -0.15812173     1.89058976    -0.14213422
H      0.95630693     2.25581418    -1.12150482
O     -1.72038663     1.26290198     0.09897061
H     -1.90399794     0.49789251     0.13294550
H     -1.99304273     1.53730926     1.09930148
O     -1.92232930    -1.30512529    -0.18188225
H     -0.96005043    -1.66227855     0.01216616
H     -2.07114716    -1.32621222    -1.12316226
O      0.73011591    -2.30805940    -0.03650461
H      1.30349482    -1.44617757     0.07393018
H      0.64556655    -2.43535550     1.01926097
15
water clusters train frame=992
O      2.17909828    -0.25436087     0.12916437
H      1.74330833     0.89346238     0.20513505
H      2.54867223    -0.10889901     1.11452089
O      0.68959166     2.20558236    -0.28011566
H     -0.13145775     1.83072040    -0.07843708
H      0.94069962     2.39978808    -1.10383152
O     -1.90447159     1.51566275     0.15745599
H     -1.88418486     0.40558204     0.00491479
H     -1.82229463     1.49306680     1.03903066
O     -1.86851413    -1.31486968    -0.20874515
H     -0.96685377    -1.67133813     0.07852531
H     -1.97815797    -1.27857702    -1.02043091
O      0.73433257    -2.20953215     0.16568505
H      1.33483523    -1.47697399     0.01429136
H      0.64683853    -2.15416840     1.21458782
15
water clusters train frame=993
O      2.38079340     0.01234108     0.18870042
H      1.75144482     0.78541067     0.13484658
H      2.51090113    -0.11409874     1.16645064
O      0.68467711     2.20439865    -0.13747707
H     -0.23738561     1.83694342    -0.09716802
H      0.86762290     2.33671669    -1.02415158
O     -1.91648019     1.38664340     0.08892164
H     -1.94633692     0.45308748     0.07209737
H     -1.93518978     1.57138613     1.06116618
O     -1.92136982    -1.40341014    -0.10938726
H     -1.06939495    -1.72495577    -0.11640170
H     -2.05377433    -1.29772255    -1.11898876
O      0.73280430    -2.23755165     0.23694087
H      1.32170990    -1.42308935     0.06529921
H      0.61283025    -2.36005171     1.01067685
15
water clusters train frame=994
O      2.27456392     0.03830676     0.12728098
H      1.80934687     0.77920331     0.17551873
H      2.42907609    -0.15626425     1.04407783
O      0.63311845     2.27978895    -0.15548732
H     -0.22620670     1.89272671    -0.08145803
H      0.95648953     2.32973449    -0.98788710
O     -1.92516367     1.47067240     0.14314215
H     -1.82405470     0.47456878    -0.02494501
H     -1.91089060     1.56499989     1.07748362
O     -1.88416311    -1.52188419    -0.19917903
H     -1.08786983    -1.57982571    -0.01580653
H     -2.04349303    -1.41306960    -1.10982464
O      0.74154378    -2.25832759     0.11076561
H      1.29786203    -1.46773046     0.08461550
H      0.65348290    -2.44585178     1.03096593
15
water clusters train frame=995
O      2.24042966     0.02817374     0.20479559
H      1.80830976     0.74199102     0.11578721
H      2.46108844    -0.14794764     1.19693048
O      0.83819383     2.25393907    -0.20448581
H     -0.07332645     2.08876005    -0.16318903
H      0.87478553     2.38249743    -0.94868226
O     -2.03094858     1.27247689    -0.04171036
H     -1.97436849     0.51183645     0.02578060
H     -1.98309790     1.64021948     1.09219410
O     -1.87421272    -1.34198662    -0.12788850
H     -0.98107755    -1.63002535    -0.00749993
H     -2.23922229    -1.33488585    -1.07449486
O      0.78222080    -2.12661617     0.13493205
H      1.22098346    -1.51051892     0.17041000
H      0.76131998    -2.51818141     1.07431266
15
water clusters train frame=996
O      2.37151315    -0.00952843     0.12441924
H      1.78257060     0.81892677     0.10951149
H      2.45860319    -0.20350548     1.16564822
O      0.72779852     2.24634506    -0.17449205
H     -0.16909777     2.02792671    -0.19010781
H      0.90792158     2.27551774    -1.09246221
O     -1.99238262     1.38108446     0.18579831
H     -1.83237612     0.46481978     0.01493877
H     -1.94238903     1.54235124     1.06481013
O     -1.89758195    -1.36144141    -0.11083094
H     -0.97380821    -1.68523306    -0.03572717
H     -2.12604885    -1.34070189    -1.12428827
O      0.75386707    -2.23726524     0.15852305
H      1.27954325    -1.39334726     0.13832095
H      0.59571855    -2.43787037     1.07117824
15
water clusters train frame=997
O      2.22710522    -0.03412701     0.08159618
H      1.74826837     0.64854674     0.06218388
H      2.43093933    -0.17661277     1.01275116
O      0.69224549     2.28130469    -0.20092031
H     -0.17276313     1.91115217    -0.06378185
H      0.89952550     2.34784645    -1.12171527
O     -1.92548287     1.43874815     0.11644939
H     -2.00066390     0.39872542     0.07401528
H     -1.87850394     1.61444620     1.03891461
O     -1.90297746    -1.35685233    -0.03121440
H     -1.02041453    -1.71478262     0.02330077
H     -2.01144020    -1.24953732    -1.08099939
O      0.66977099    -2.32539614     0.07243012
H      1.25681677    -1.50093988     0.07257232
H      0.69221690    -2.28003234     1.15394689
15
water clusters train frame=998
O      2.30280616     0.05032632     0.25241897
H      1.84597813     0.69948963     0.08845398
H      2.42397643    -0.28561216     1.05772015
O      0.77370607     2.37105213    -0.09969155
H     -0.21841611     1.89908131     0.00936298
H      0.88809230     2.35070845    -1.14299010
O     -2.01499302     1.34906544    -0.01072427
H     -1.91840734     0.54820569    -0.01163361
H     -2.00143427     1.50586722     1.03407797
O     -1.80250716    -1.32826256    -0.16953217
H     -0.73722511    -1.66041705    -0.12096089
H     -2.14173482    -1.33488776    -1.20408632
O      0.91052720    -2.30208894     0.11607046
H      1.26610403    -1.58389579     0.11012688
H      0.70559424    -2.41094895     1.10674333
15
water clusters train frame=999
O      2.36250080     0.00405993     0.12365723
H      1.72728551     0.74835330     0.20439294
H      2.43479492    -0.20271547     1.14390549
O      0.75956673     2.25662338    -0.13933288
H     -0.19912466     1.96482375    -0.07452881
H      0.89141726     2.25748402    -1.06578921
O     -1.91348811     1.45427403     0.19431625
H     -1.99497303     0.41653277     0.11357818
H     -1.98008774     1.64340229     1.14010624
O     -1.91271224    -1.36294934    -0.12174361
H     -0.94545719    -1.63894159    -0.02060752
H     -2.15792262    -1.33315300    -1.12168378
O      0.77024984    -2.22179877     0.16578596
H      1.26302588    -1.50098952     0.08425015
H      0.61448636    -2.36708767     1.05366749
18
water clusters train frame=1000
O      2.85881450    -0.02192819     0.15582057
H      2.32185230     0.90609398     0.07127793
H      2.83279392    -0.21447188     1.01271234
O      1.46751270     2.39572660    -0.15391750
H      0.48122049     2.36359178    -0.14567833
H      1.56969408     2.39426447    -1.07155038
O     -1.42207101     2.37697923     0.15007363
H     -1.85155510     1.51964575     0.12139513
H     -1.30297412     2.56175792     1.03702343
O     -2.79938453     0.02327420    -0.15159256
H     -2.24350666    -0.80532280    -0.09108211
H     -2.88010617     0.17828821    -1.04659178
O     -1.37459977    -2.36520090     0.17076765
H     -0.32626374    -2.40763764     0.10098050
H     -1.59920456    -2.41465841     1.11577680
O      1.31215223    -2.37759362    -0.11137347
H      1.86884882    -1.59132879    -0.15424621
H      1.24736632    -2.45311744    -1.06516573
18
water clusters train frame=1001
O      1.56238545     0.00151319     0.07083449
H      0.75851302     0.51455168    -0.00677780
H      1.75818338    -0.02815908     0.93155557
O     -0.82268348     1.35831966    -0.07582929
H     -0.71227781     1.34670095     0.94712184
H      0.14490202     1.37541274    -0.17699672
O     -0.84763499    -1.34855023     0.01844655
H      0.05556528    -0.89127125     0.00962832
H     -0.92520506    -1.52442877     0.87283600
O      1.46087343    -0.12492911     2.74190100
H      1.55575894     0.11036325     1.73908533
H      2.61251157    -0.04553356     2.93232153
O     -0.61931660     1.34498540     2.69348067
H     -0.65771057     0.36502126     2.54644002
H     -0.75562475     1.66271893     1.71556431
O     -0.67429883    -1.35723451     2.69150765
H     -0.81976977    -1.40782885     1.69145447
H      0.15731578    -1.46845047     2.93721715
18
water clusters train frame=1002
O      0.09214190    -0.02284295    -0.06615569
H      0.97870998    -0.01459166     0.08768202
H     -0.04601132    -0.09127724     1.01508281
O      2.95807156    -0.05535461    -0.09267654
H      3.32946436     0.86095342     0.13422013
H      2.57855169    -0.36716342     0.90136400
O      4.08738364     2.13370980     0.33162882
H      3.63643875     3.17529228     0.12904510
H      3.90522623     2.20424476     1.44101567
O      1.43264313     2.28717363     0.36314714
H      0.83887497     1.47312386     0.38484657
H      1.47464392     2.44105164     1.29679211
O      2.76515535     4.88503280     0.03579113
H      1.89804258     4.71596721    -0.15607728
H      3.13773045     4.70538812     1.02304399
O      0.02185604     4.71239874     0.04181143
H      0.44182637     3.92976472     0.11930437
H     -0.27861533     5.11108064     0.76807799
18
water clusters train frame=1003
O      2.35300448     2.37697378     2.38636402
H      1.68955391     1.76968007     2.74945605
H      3.21904641     1.97631273     2.57287246
O      2.33524778    -2.30989040    -2.33541677
H      1.72595732    -1.79572952    -2.70195482
H      3.20574492    -1.97291889    -2.56046318
O     -2.30988009     2.30990518    -2.33932878
H     -2.03950491     2.00166200    -1.51926330
H     -1.56111423     2.64517502    -2.83073736
O     -2.35640396    -2.42127368     2.32131493
H     -2.07381610    -2.01907605     1.46608610
H     -1.51923209    -2.53095606     2.83361618
O      0.07738909    -0.08922577     3.74701585
H      0.63411296     0.56253704     3.29055464
H      0.49618635    -0.63750470     4.15857868
O      0.00305406    -0.01665826    -3.71242582
H      0.69038687    -0.61682776    -3.39728619
H      0.56983866     0.72983743    -4.20411096
18
water clusters train frame=1004
O      2.76681462     0.00213556     0.01621878
H      2.34318282     0.83635244     0.14515331
H      2.87796356    -0.17213733     1.09284704
O      1.40374924     2.26059245    -0.15461857
H      0.41558321     2.40903198    -0.20173716
H      1.52883784     2.37378359    -1.20733085
O     -1.41550658     2.38472811     0.12666698
H     -1.80463691     1.59781399     0.12494836
H     -1.24025069     2.60888966     1.10582702
O     -2.72269195    -0.05440015    -0.11418120
H     -2.29310497    -0.91396016    -0.09874733
H     -2.80998215     0.19915331    -1.11733113
O     -1.48221528    -2.35831782     0.16626712
H     -0.43702342    -2.27455147     0.17784340
H     -1.50787701    -2.34144747     1.06760620
O      1.40860832    -2.34774126    -0.16941684
H      1.82410134    -1.52060436    -0.14794055
H      1.39870772    -2.61293749    -1.20758666
18
water clusters train frame=1005
O      1.65430267     0.03235821     0.14845775
H      0.81358497     0.55722221    -0.19172930
H      1.84186974    -0.31385527     1.00044789
O     -0.90490322     1.44264548     0.00927103
H     -0.88994580     1.32188772     0.94754532
H      0.27295118     1.18655468    -0.26051964
O     -0.81041755    -1.41131636     0.02203548
H      0.11435441    -0.87123822     0.06169238
H     -1.03901308    -1.35797115     1.04105161
O      1.55762348    -0.00057915     2.77076807
H      1.58163256     0.26033898     1.81461792
H      2.57546797     0.03809211     2.87811957
O     -0.79784583     1.50692391     2.64267097
H     -0.79592269     0.46751447     2.62244692
H     -0.60454683     1.62629852     1.84572346
O     -0.76272572    -1.35397156     2.75037390
H     -0.65067977    -1.24255500     1.57476041
H      0.14400369    -1.36806659     2.88195611
18
water clusters train frame=1006
O      0.02411332     0.01716153    -0.01082595
H      0.99018686    -0.00683594     0.00139409
H     -0.26257007    -0.04287453     0.97706549
O      2.86728518     0.02204983    -0.10904819
H      3.31185562     0.84783785     0.17227695
H      2.55947022    -0.27963402     0.88473809
O      4.15037264     2.33876828     0.41620264
H      3.67330430     3.11113641     0.25935800
H      4.18779447     2.25549842     1.34708200
O      1.45178609     2.33562555     0.43766632
H      0.92910880     1.43068549     0.21352329
H      1.48403388     2.50894798     1.37304091
O      2.79256133     4.75085988    -0.06326715
H      1.72085095     4.71642228    -0.05249912
H      2.93542967     4.72360769     0.91115501
O     -0.03291068     4.69530606    -0.06712631
H      0.47044594     3.89988037     0.07764160
H     -0.21457152     4.97041685     0.92120356
18
water clusters train frame=1007
O      2.42006779     2.23214970     2.31410628
H      1.69794122     1.81618823     2.79624231
H      3.12222130     2.01129060     2.54713700
O      2.29191481    -2.34196750    -2.31453628
H      1.63723693    -1.78482961    -2.84124545
H      3.28863681    -2.01052805    -2.49078592
O     -2.30231761     2.37570148    -2.33931205
H     -1.98556718     1.99177918    -1.47777867
H     -1.54457032     2.58574392    -2.81828972
O     -2.37772486    -2.31546665     2.46783702
H     -1.97876356    -2.08288765     1.58942052
H     -1.45128611    -2.61425914     2.86445842
O     -0.00875233     0.05489767     3.84333607
H      0.54878239     0.54644689     3.27418521
H      0.50897712    -0.59391578     4.19035979
O      0.00595523     0.06923540    -3.75192725
H      0.76440478    -0.56452654    -3.41964725
H      0.48866949     0.65927721    -4.25992787
18
water clusters train frame=1008
O      2.69885111     0.02716777     0.15384989
H      2.29723128     0.83395524     0.01223087
H      2.84423228    -0.23327935     0.97324637
O      1.34737498     2.46393682    -0.05507620
H      0.38615774     2.51468680    -0.24004523
H      1.64092479     2.34901937    -1.01050942
O     -1.39261651     2.41545786     0.10623149
H     -1.80251652     1.58468258     0.13943787
H     -1.30806723     2.70821177     1.10096802
O     -2.72123361     0.02635206    -0.13045344
H     -2.39212025    -0.69136354    -0.08038857
H     -2.86534518     0.30842274    -0.97965020
O     -1.42489363    -2.31817034     0.03349927
H     -0.49203692    -2.35454016     0.12903770
H     -1.52905788    -2.20831633     1.05089668
O      1.41674016    -2.42370314    -0.05800237
H      1.76717605    -1.47934883    -0.08673335
H      1.32473520    -2.54658553    -1.07420034
18
water clusters train frame=1009
O      1.61952508    -0.05048898    -0.06475577
H      0.73562395     0.53580048     0.03145265
H      1.76608381    -0.11646801     0.98887030
O     -0.76997459     1.40073566     0.03096671
H     -0.74254168     1.37057094     0.96742151
H      0.12324039     1.33546713    -0.26917831
O     -0.73324399    -1.29109465     0.05465613
H      0.08125936    -0.98134057     0.04868762
H     -1.01426767    -1.52199441     0.85801335
O      1.57114849     0.02170973     2.69638543
H      1.61080405    -0.05553636     1.65457195
H      2.51659862     0.00064314     2.89024115
O     -0.80448529     1.32404941     2.71294537
H     -0.82733376     0.42768334     2.71422178
H     -0.75189434     1.58902293     1.74268098
O     -0.75458833    -1.36203019     2.72674888
H     -0.78588125    -1.39624509     1.75890252
H      0.15175965    -1.46250733     2.87799577
18
water clusters train frame=1010
O     -0.09372915     0.05503171    -0.09215815
H      0.99430801    -0.06917271    -0.05343282
H     -0.26139211    -0.08408663     0.97548625
O      2.82396690     0.05961297     0.06108913
H      3.17924451     0.77842753     0.09212793
H      2.64409143    -0.26134409     0.78632049
O      4.11036507     2.33634481     0.42263356
H      3.61673287     3.16957937     0.25375884
H      4.20012096     2.18089285     1.45097585
O      1.39511111     2.39426658     0.44550701
H      1.00516835     1.59445435     0.25501272
H      1.43400978     2.47556872     1.35479842
O      2.70731660     4.73816290    -0.10688390
H      1.79676688     4.62890599    -0.11610390
H      2.99784577     4.75355416     0.93929902
O      0.05186590     4.69124385    -0.01702088
H      0.51686238     3.76723572     0.11890711
H     -0.19864482     4.98939393     0.89878264
18
water clusters train frame=1011
O      2.33348622     2.31396293     2.30670188
H      1.83745391     1.61055052     2.54311417
H      3.10366295     1.92314030     2.54725915
O      2.41493687    -2.42034808    -2.28232065
H      1.76457513    -1.62327349    -2.72773910
H      3.10038225    -2.09571979    -2.67763769
O     -2.36648557     2.41881266    -2.32750581
H     -2.06306734     2.02909995    -1.46350574
H     -1.48370418     2.61993202    -2.77862205
O     -2.47344073    -2.30939144     2.33159027
H     -1.92570362    -1.94730479     1.55247537
H     -1.44608636    -2.58717029     2.85820636
O      0.06924132     0.07708181     3.75944986
H      0.70922658     0.63669258     3.29939841
H      0.75781695    -0.70226535     4.06599525
O     -0.04601262    -0.10262535    -3.68935581
H      0.63306387    -0.62403429    -3.45888328
H      0.57399634     0.66337250    -4.08959937
18
water clusters train frame=1012
O      2.84003502    -0.03738648     0.12245528
H      2.24660384     0.78266080     0.17701118
H      2.81049587    -0.17248610     1.12741005
O      1.37832350     2.32878042    -0.22296300
H      0.51198846     2.30990357    -0.11480373
H      1.58512258     2.45214730    -1.06911885
O     -1.36775866     2.44373438     0.16190778
H     -1.89308420     1.58152263     0.06260122
H     -1.22447480     2.55385477     1.08470759
O     -2.76290736     0.04474386    -0.18385452
H     -2.28627594    -0.80948297    -0.06953349
H     -2.85188114     0.14911505    -1.13582537
O     -1.33754434    -2.42240836     0.16200360
H     -0.40179640    -2.34140230     0.15670915
H     -1.55906815    -2.36854710     1.07701157
O      1.40808599    -2.38593739    -0.16729333
H      1.88629261    -1.48670613    -0.01191511
H      1.18422574    -2.60564390    -1.16711866
18
water clusters train frame=1013
O      1.64811804    -0.04244788     0.13567241
H      0.67514515     0.41949659     0.01090385
H      1.82053393    -0.16605979     0.95904587
O     -0.88148046     1.31238547    -0.01530427
H     -0.72976178     1.31995791     0.95458899
H      0.01930210     1.41576468    -0.21368825
O     -0.77916503    -1.32924583     0.07416146
H      0.06705301    -0.88595629    -0.01223799
H     -1.00951243    -1.46136210     0.81739142
O      1.59115135    -0.04374037     2.69239695
H      1.55180405    -0.00601935     1.57423553
H      2.49047845    -0.02891773     2.89392797
O     -0.76981970     1.52687909     2.68803393
H     -0.85596189     0.45419650     2.64939567
H     -0.79338187     1.57860111     1.76782432
O     -0.75984996    -1.41736438     2.75480043
H     -0.72758179    -1.35542679     1.70849601
H      0.17049026    -1.25390083     2.91964034
18
water clusters train frame=1014
O      0.06981474     0.11873814    -0.01457351
H      0.93520228     0.06325022    -0.04820606
H     -0.39326742     0.08220176     0.93894389
O      2.61427267     0.10295730    -0.02142793
H      3.09216956     0.70009086     0.04270848
H      2.50562040    -0.24109058     0.81068073
O      4.07996545     2.14193547     0.36333131
H      3.52171434     3.24811874     0.35878816
H      4.16454502     2.23727117     1.29053984
O      1.41473878     2.25086925     0.45365198
H      0.84490282     1.53299530     0.45957599
H      1.39027738     2.52406903     1.46789547
O      2.75777361     4.74917426     0.02759982
H      1.81752348     4.71062510     0.00432186
H      2.96369856     4.74106861     0.98437147
O      0.07476721     4.69900807     0.05585602
H      0.44554546     3.87451279     0.23949300
H     -0.24965232     5.12771276     0.88385778
18
water clusters train frame=1015
O      2.30198729     2.30065294     2.36909820
H      1.67757250     1.67461805     2.77213896
H      3.16346419     1.95020781     2.50290986
O      2.38407678    -2.32373077    -2.30434964
H      1.74766676    -1.76420350    -2.74249711
H      3.17343341    -1.94774060    -2.51858089
O     -2.36997497     2.27498087    -2.29532157
H     -2.00340910     2.02768211    -1.49704667
H     -1.60506091     2.47779769    -2.91707408
O     -2.37140329    -2.33021841     2.35190929
H     -2.02466456    -2.07354360     1.50988069
H     -1.55126982    -2.50943263     2.76618439
O      0.03594506    -0.03353185     3.70634523
H      0.60666525     0.56879345     3.34567354
H      0.50842199    -0.69629685     4.15393570
O      0.00659357    -0.01314814    -3.69700464
H      0.52158399    -0.65882714    -3.41114228
H      0.50853718     0.79116029    -4.14930936
18
water clusters train frame=1016
O      2.71135867     0.06428419     0.17221420
H      2.21041714     0.86035868     0.08613426
H      2.89850116    -0.17022155     1.04089252
O      1.41949615     2.35622745    -0.20402798
H      0.44237535     2.45202760    -0.13513949
H      1.61815098     2.41969596    -1.20289123
O     -1.42436647     2.36643331     0.15103505
H     -1.93645683     1.64667404     0.29156314
H     -1.35695127     2.56459793     1.10133919
O     -2.79928570     0.01230365    -0.11278388
H     -2.18964248    -0.87549128    -0.12950959
H     -2.84954015     0.15335036    -1.05363255
O     -1.37271486    -2.34057374     0.21943358
H     -0.50001287    -2.34555565     0.02462583
H     -1.46132622    -2.37878057     1.18706501
O      1.43221158    -2.42976690    -0.11069360
H      1.85337716    -1.56597985    -0.05994769
H      1.33784048    -2.58512781    -1.04028856
18
water clusters train frame=1017
O      1.58888980     0.04173111     0.01870697
H      0.84826366     0.53079174     0.04400202
H      1.78364286    -0.16412200     0.79896647
O     -0.79259337     1.41849362    -0.01772766
H     -0.80733023     1.41873000     0.87296755
H      0.03544330     1.33698726    -0.33737622
O     -0.79529256    -1.33203110    -0.08738978
H      0.07592496    -1.06773692     0.11164678
H     -0.93095365    -1.44366195     0.98703138
O      1.65831543    -0.08147470     2.74856456
H      1.48505266     0.10295179     1.71237834
H      2.70005899    -0.12404829     3.04910345
O     -0.97044214     1.40130381     2.75095491
H     -0.88477156     0.31524083     2.70274823
H     -0.66434184     1.63307369     1.57677183
O     -0.83499060    -1.39979292     2.72805044
H     -0.83003873    -1.32356698     1.75374391
H      0.22138384    -1.29581677     2.83360935
18
water clusters train frame=1018
O     -0.00756702     0.00616136    -0.06258501
H      0.93879849    -0.00548220     0.00918356
H     -0.24818320     0.06662226     0.95007052
O      2.78497477     0.03108218    -0.02976615
H      3.28908854     0.76215576     0.11783312
H      2.60512949    -0.32232662     0.80887547
O      4.03753596     2.36210368     0.41972806
H      3.65989583     3.21639560     0.28498483
H      4.23147295     2.30647435     1.31372626
O      1.41945077     2.29935732     0.44131423
H      0.94227394     1.52561834     0.28099346
H      1.56995520     2.42832284     1.33802862
O      2.78901340     4.77711656    -0.03202720
H      1.81214093     4.76170434     0.03695389
H      3.01897809     4.68632775     0.97583857
O     -0.06231950     4.69459192     0.04700402
H      0.43502920     3.88693686     0.14363884
H     -0.22168056     5.00435764     0.94088211
18
water clusters train frame=1019
O      2.34199287     2.39282603     2.31932482
H      1.73217478     1.66587380     2.65135630
H      3.16704900     1.96449358     2.57349049
O      2.37461227    -2.27127112    -2.30981810
H      1.64283640    -1.65515249    -2.70089426
H      3.24437368    -2.03741391    -2.51315921
O     -2.38052243     2.25908804    -2.37798952
H     -2.02995412     1.96722638    -1.56024631
H     -1.56631875     2.46754953    -2.93619263
O     -2.41645484    -2.40130821     2.36407974
H     -1.99423991    -2.11338385     1.47064200
H     -1.56172199    -2.53903792     2.86408365
O     -0.12350814     0.00829870     3.72718546
H      0.66646799     0.49103703     3.34095671
H      0.59878006    -0.67893143     4.18091591
O      0.04264627     0.01677684    -3.75978310
H      0.63301049    -0.60689638    -3.36417505
H      0.53198428     0.52920056    -4.20667284
18
water clusters train frame=1020
O      2.69281202     0.03392728     0.22298026
H      2.26273901     0.88242800     0.22769614
H      2.82273194    -0.31008242     1.02971995
O      1.40450686     2.36313419    -0.19182638
H      0.49853410     2.39626670    -0.20981664
H      1.67695062     2.22682392    -1.04634793
O     -1.37253675     2.47734902     0.17383045
H     -1.76399760     1.60265269     0.21783183
H     -1.31019636     2.49978451     1.03966408
O     -2.80078433     0.03657466    -0.23641839
H     -2.32378528    -0.80755442    -0.09672483
H     -2.72539731     0.06260394    -1.10172867
O     -1.22974911    -2.47175205     0.12597242
H     -0.43220971    -2.36400326     0.20991219
H     -1.55436685    -2.45403858     1.06238475
O      1.37709114    -2.29452033    -0.09031395
H      1.87889403    -1.54396035    -0.06296400
H      1.28071678    -2.68390743    -0.89243071
18
water clusters train frame=1021
O      1.59945117    -0.06313691    -0.00343240
H      0.72812672     0.49345015    -0.02651270
H      1.80598726    -0.09862546     0.87488611
O     -0.77299021     1.34955818     0.01642017
H     -0.80630426     1.39957161     0.99743267
H      0.16274880     1.36788716    -0.26153202
O     -0.79085514    -1.36896522    -0.05224639
H      0.00714171    -0.87084801     0.04922061
H     -0.98307846    -1.47582636     0.94195110
O      1.65074494     0.00874185     2.71137056
H      1.54150997     0.03063680     1.79157445
H      2.55001398     0.01849449     2.93943751
O     -0.85615903     1.34026446     2.72213909
H     -0.72416331     0.37969024     2.73448874
H     -0.79495209     1.59946174     1.73995491
O     -0.81510545    -1.35504076     2.70807546
H     -0.89059120    -1.29390282     1.77439732
H      0.04312017    -1.38777505     2.95664291
18
water clusters train frame=1022
O     -0.08313624    -0.11253702     0.01429007
H      0.98731269    -0.03774745    -0.06744829
H     -0.27597647     0.06050563     0.85621410
O      2.75173014    -0.02088594    -0.12969331
H      3.17084294     0.75513682     0.11832088
H      2.55781970    -0.32483965     0.93276877
O      4.03150772     2.33888057     0.38414721
H      3.63644302     3.14858486     0.19855246
H      4.21443148     2.21217277     1.33748834
O      1.45443515     2.27757158     0.52683704
H      0.91139875     1.55088655     0.32069063
H      1.46241658     2.47771897     1.37424871
O      2.65818259     4.69946990     0.02243289
H      1.68620547     4.68219590    -0.07787041
H      3.03458751     4.65755115     0.93417479
O      0.10986260     4.59044024    -0.05384175
H      0.47767443     3.89832377     0.26186552
H     -0.15681994     5.07751627     0.85664367
18
water clusters train frame=1023
O      2.29992911     2.17580287     2.28982332
H      1.55630234     1.76391170     2.63728610
H      3.18360432     2.01990088     2.52161031
O      2.26160838    -2.28042724    -2.26803181
H      1.58139073    -1.83987695    -2.87309634
H      3.16456888    -2.00070736    -2.68488534
O     -2.25916438     2.31300226    -2.32220464
H     -1.92000232     2.10545495    -1.50482536
H     -1.52883802     2.63578382    -2.93303945
O     -2.46682204    -2.37146341     2.37594044
H     -1.93741815    -1.92554337     1.38527468
H     -1.59553228    -2.53141154     2.94602656
O     -0.06510578    -0.04932548     3.62914556
H      0.72067874     0.61886281     3.44071778
H      0.50177830    -0.63164827     4.14622324
O     -0.16423344     0.01693515    -3.86691354
H      0.73749647    -0.60536364    -3.43269125
H      0.62647458     0.62785758    -4.20787213
18
water clusters train frame=1024
O      2.71080250     0.03362157     0.16048671
H      2.28621787     0.81786562     0.12236417
H      2.81787070    -0.13304358     1.10741079
O      1.41315108     2.38336961    -0.09941302
H      0.36317201     2.40849801    -0.11017703
H      1.52371704     2.36621839    -1.08810039
O     -1.32440974     2.40679402     0.22869619
H     -1.84539943     1.61309226     0.01915792
H     -1.31227828     2.53428157     1.09195973
O     -2.78416621     0.00566320    -0.18008874
H     -2.22955998    -0.77150195    -0.13738617
H     -2.86588599     0.17134847    -1.11917173
O     -1.44603532    -2.38307629     0.16042280
H     -0.41607267    -2.39437667     0.13387242
H     -1.56922288    -2.46553536     1.15100144
O      1.32144630    -2.34437411    -0.22441570
H      1.85208186    -1.51184396    -0.14306650
H      1.33124639    -2.62351050    -1.07145939
18
water clusters train frame=1025
O      1.60036519     0.10971426    -0.00078918
H      0.73377874     0.53863173    -0.07039168
H      1.89331036    -0.10627701     0.93383551
O     -0.83825365     1.37177644     0.01236305
H     -0.72023566     1.44397967     1.00687475
H      0.21196594     1.33896876    -0.28380415
O     -0.82412051    -1.29639372    -0.07491372
H     -0.03642828    -0.90661894     0.04315298
H     -0.97868411    -1.53721115     0.97053710
O      1.54527743     0.03730346     2.78027364
H      1.61275999     0.01244034     1.67644940
H      2.55344736    -0.09601965     2.91470760
O     -0.80349517     1.38602536     2.71017445
H     -0.69496623     0.45132757     2.72128905
H     -0.75566663     1.55432675     1.85148771
O     -0.89694440    -1.37118343     2.64214824
H     -0.88523137    -1.50303089     1.85928788
H      0.19264188    -1.33894880     2.99193768
18
water clusters train frame=1026
O      0.05223420     0.21812949    -0.04517844
H      0.86059112     0.06084268     0.05302316
H     -0.26355254    -0.08335028     0.97757223
O      2.69779224    -0.14201343    -0.15341503
H      3.20849232     0.84332779     0.21198998
H      2.52653664    -0.25579227     1.02552242
O      4.29876641     2.42568146     0.29365987
H      3.69474218     3.12055900     0.21926100
H      4.13634822     2.12573570     1.41191141
O      1.35066533     2.27344011     0.35673679
H      0.97848634     1.44333258     0.11822270
H      1.35387387     2.40611390     1.42208981
O      2.82870887     4.62935684    -0.02119919
H      1.80530405     4.65516375     0.00797378
H      2.97964511     4.75874821     0.96270930
O      0.17970691     4.78447558     0.04637899
H      0.54923478     3.88244039     0.16249522
H     -0.19086948     5.13710399     0.97174925
18
water clusters train frame=1027
O      2.35420268     2.38474319     2.36903394
H      1.76684472     1.75046459     2.79426130
H      3.17358365     1.91928667     2.61415371
O      2.35807628    -2.33538244    -2.33053771
H      1.71803314    -1.73831792    -2.69843602
H      3.24587151    -1.96418120    -2.59131924
O     -2.36480042     2.30498043    -2.31858714
H     -2.07357843     2.01025379    -1.49870820
H     -1.56638747     2.52936090    -2.82177252
O     -2.29341147    -2.38328890     2.31775276
H     -1.99438979    -1.99350259     1.56832093
H     -1.57813531    -2.55727252     2.90330454
O     -0.01111548    -0.04304504     3.68843553
H      0.57638204     0.59069798     3.29833203
H      0.54715159    -0.69453136     4.15800378
O      0.07293280     0.02943505    -3.70450406
H      0.60123932    -0.60438909    -3.43108460
H      0.50282940     0.66860922    -4.12583423
18
water clusters train frame=1028
O      2.82161082     0.06703033     0.13320211
H      2.23597388     0.91797517     0.21258945
H      2.89172661    -0.15419886     1.14657054
O      1.36376262     2.41365716    -0.13670877
H      0.42326251     2.37445473    -0.06280812
H      1.52256203     2.37890004    -1.08204613
O     -1.35915822     2.46422169     0.09298393
H     -1.80287432     1.53336480     0.13379020
H     -1.40506537     2.52080480     1.18151699
O     -2.76259630    -0.05586556    -0.20936680
H     -2.24780205    -0.90737129    -0.15320711
H     -2.98093251     0.19801644    -1.00127990
O     -1.38633170    -2.40066748     0.13282557
H     -0.42759546    -2.36812574     0.17141334
H     -1.54938849    -2.29047675     1.02445160
O      1.36913032    -2.41810601    -0.17584968
H      1.79818091    -1.52093180    -0.10937224
H      1.26962410    -2.53721030    -1.05848496
18
water clusters train frame=1029
O      1.54973833    -0.00519365     0.13321556
H      0.72640530     0.50956752    -0.01752390
H      1.85482309    -0.14976854     0.83845607
O     -0.82290394     1.40808824    -0.01807837
H     -0.82976064     1.55376001     0.98962938
H      0.08511708     1.35037274    -0.24845754
O     -0.69726438    -1.36060082    -0.05656648
H     -0.02444030    -0.95402490    -0.02082974
H     -1.02808436    -1.46394737     0.83602222
O      1.52124278    -0.01816073     2.74079695
H      1.51740355    -0.10406550     1.76208069
H      2.45529244     0.10780379     2.88996108
O     -0.57100145     1.47497976     2.71167103
H     -0.79134099     0.36732942     2.76441748
H     -0.71775031     1.55777818     1.79753915
O     -0.73833863    -1.42202788     2.75180413
H     -0.87742189    -1.22951608     1.74455512
H      0.11585015    -1.42622203     2.85034970
18
water clusters train frame=1030
O      0.09935846     0.05438711    -0.03026178
H      1.02328785    -0.05925463     0.01371194
H     -0.27939491    -0.01212603     0.97939651
O      2.74949869     0.02231979    -0.02389160
H      3.26918331     0.79658301     0.08976413
H      2.56316399    -0.29302315     0.84089340
O      4.19508660     2.41264984     0.37892203
H      3.73317725     3.17449900     0.24553437
H      4.21479166     2.25273013     1.35639498
O      1.37292510     2.32138340     0.42387003
H      0.89728963     1.50319290     0.26429636
H      1.43464720     2.48426702     1.34153326
O      2.78436100     4.66502156    -0.06742918
H      1.83159958     4.69043475    -0.02587348
H      2.97835887     4.62805094     0.99967857
O      0.07415019     4.65436150     0.02796812
H      0.48902664     3.96201385     0.12916615
H     -0.23111283     5.06745701     0.76781812
18
water clusters train frame=1031
O      2.41447360     2.34312597     2.38202335
H      1.74142090     1.75978246     2.73942200
H      3.12152625     2.04732638     2.58489162
O      2.11323507    -2.23803873    -2.30194180
H      1.71095247    -1.58956333    -2.69038273
H      3.21760797    -1.99875666    -2.57885409
O     -2.31798364     2.23605905    -2.38747716
H     -2.05593506     1.90646731    -1.46404721
H     -1.57464595     2.48933686    -2.80206860
O     -2.35302499    -2.39333522     2.31860742
H     -2.12351863    -2.00271401     1.60307952
H     -1.52607515    -2.54582754     2.82550177
O      0.04456040     0.06323803     3.74682169
H      0.65216852     0.57503841     3.28330396
H      0.55026100    -0.70464654     4.17729613
O      0.05901681    -0.01938011    -3.75793679
H      0.54190575    -0.52871977    -3.30816975
H      0.57037694     0.70946759    -4.10621513
18
water clusters train frame=1032
O      2.76314265    -0.05345750     0.27444474
H      2.37815678     0.89649851     0.08444905
H      2.79313438    -0.15616262     1.16716302
O      1.34459614     2.34997724    -0.15414391
H      0.54036367     2.29492865    -0.08716149
H      1.53867971     2.36345669    -1.03566755
O     -1.47493480     2.43832827     0.15628711
H     -1.85006992     1.58780722     0.09944372
H     -1.31336913     2.50079439     0.89984924
O     -2.80557411    -0.06535070     0.00822323
H     -2.35746849    -0.91588047    -0.18276137
H     -2.81914262     0.15626360    -1.08856881
O     -1.35200871    -2.36209521     0.19834955
H     -0.32441357    -2.34855614     0.11581126
H     -1.63262827    -2.35912189     1.05219105
O      1.31329760    -2.49810427    -0.11298153
H      1.85314183    -1.60113085    -0.13224337
H      1.39648621    -2.48674066    -1.11578970
18
water clusters train frame=1033
O      1.61052586     0.01369703     0.00029529
H      0.70492610     0.36160783    -0.07106108
H      1.74839383    -0.10123114     0.95764637
O     -0.85835903     1.37956996    -0.02320976
H     -0.84345195     1.39757835     0.91080134
H      0.06500257     1.36685624    -0.28025373
O     -0.75930859    -1.40645647     0.05456505
H      0.10501289    -0.91034243    -0.00356493
H     -1.00333670    -1.54119893     0.95866313
O      1.63597569    -0.00499156     2.73160563
H      1.55298791     0.07700040     1.71865669
H      2.49451457     0.00815068     2.94982494
O     -0.79868207     1.37175604     2.73470511
H     -0.79819734     0.44532638     2.69243980
H     -0.86265433     1.59184314     1.75121932
O     -0.80445962    -1.32242119     2.76651692
H     -0.80020107    -1.33733839     1.70790757
H      0.06457292    -1.42176969     2.87273810
18
water clusters train frame=1034
O      0.03776070    -0.01690184     0.03386001
H      0.95349580    -0.08204305     0.00549979
H     -0.18914526    -0.01096668     1.06902408
O      2.73296422    -0.01409038     0.01547046
H      3.22223637     0.88230961     0.18368267
H      2.56289085    -0.25900354     0.87705652
O      4.25439391     2.38561878     0.38886203
H      3.65058514     3.21790454     0.16460929
H      4.16010860     2.19529412     1.42307217
O      1.41723076     2.36491718     0.40214150
H      0.80092963     1.50959402     0.39133987
H      1.44196855     2.33277423     1.45881133
O      2.71188549     4.68650968    -0.00242528
H      1.79711833     4.60375132    -0.03885541
H      2.86664519     4.72934858     0.96358953
O     -0.05510063     4.65052235    -0.01928534
H      0.49640542     3.94035602     0.13254938
H     -0.17324304     5.02439292     0.85331144
18
water clusters train frame=1035
O      2.28753867     2.27286922     2.31578878
H      1.70236262     1.77989365     2.86672659
H      3.16598559     2.00598284     2.54746951
O      2.35060319    -2.32331886    -2.42537367
H      1.88264931    -1.75307466    -2.75196510
H      3.25692958    -1.87611233    -2.62728607
O     -2.36416286     2.20487778    -2.41397879
H     -2.13157894     2.17430782    -1.41601509
H     -1.53044013     2.61958306    -2.80986415
O     -2.36837138    -2.33459646     2.35172205
H     -2.03084223    -1.95079322     1.39385682
H     -1.72701371    -2.44098755     2.89101137
O     -0.00728357    -0.08454557     3.67550904
H      0.51336072     0.52269878     3.35671361
H      0.74751304    -0.83127115     4.07913119
O     -0.07878952    -0.08142174    -3.61238949
H      0.67458249    -0.67728105    -3.50364183
H      0.57352025     0.68301957    -4.18475108
18
water clusters train frame=1036
O      2.74850635     0.02201578     0.17533567
H      2.20286237     0.84716306     0.13611751
H      2.80674208    -0.17047754     1.02891819
O      1.36467876     2.41574746    -0.10821249
H      0.39964887     2.34100838    -0.13430993
H      1.50278072     2.38956763    -1.12726820
O     -1.37323657     2.37010571     0.10937134
H     -1.85729584     1.49766661     0.10884672
H     -1.24517242     2.59767714     1.13488189
O     -2.75117925     0.04716712    -0.16278306
H     -2.26221037    -0.86757622    -0.10271682
H     -2.79822132     0.08978494    -1.11381931
O     -1.45336308    -2.45570631     0.16513135
H     -0.43777350    -2.47033186     0.07993944
H     -1.55221493    -2.39147678     1.07278126
O      1.40192571    -2.40751598    -0.09982921
H      1.85186441    -1.59151890    -0.08755655
H      1.31953322    -2.53892223    -1.05877550
18
water clusters train frame=1037
O      1.74214473    -0.00343784     0.01952032
H      0.76826218     0.46115158    -0.04060215
H      1.72766791    -0.16771302     0.89189673
O     -0.80118245     1.26968943    -0.02008510
H     -0.71502046     1.27629709     0.91071292
H      0.13549749     1.32842199    -0.34265106
O     -0.71025146    -1.39500127     0.06528538
H      0.03351769    -0.80668635    -0.08218646
H     -0.93784592    -1.44098295     0.84644331
O      1.60371158    -0.11282067     2.80248849
H      1.66000304     0.00126287     1.79792685
H      2.52849397     0.01455445     3.00992683
O     -0.93875325     1.41803133     2.77167801
H     -0.76480623     0.39726141     2.54677329
H     -0.84037660     1.66629881     1.86490518
O     -0.87122734    -1.39647566     2.73262165
H     -0.78031358    -1.43125629     1.64743905
H      0.15229815    -1.36785591     2.96276842
18
water clusters train frame=1038
O      0.04174410     0.02309805    -0.09104503
H      0.95995639    -0.00799781     0.13738937
H     -0.29368591     0.04581272     0.90121740
O      2.71515326    -0.08119915     0.05825114
H      3.28768564     0.89620664    -0.00636991
H      2.61498059    -0.21268077     0.89233901
O      4.14942497     2.27824247     0.43042577
H      3.59242322     3.14240545     0.31348500
H      4.03365974     2.33370966     1.37051884
O      1.32322901     2.32403657     0.48502420
H      0.81775719     1.62367979     0.14802795
H      1.42015049     2.44680972     1.29271936
O      2.70802559     4.61436508     0.05351640
H      1.82281933     4.73348154    -0.01838450
H      3.07092732     4.68701222     0.83437994
O      0.00246489     4.65366447    -0.06933581
H      0.37089653     3.88720582     0.16832707
H     -0.24977068     5.08935921     0.99704261
18
water clusters train frame=1039
O      2.38683169     2.35290195     2.29711635
H      1.69681730     1.59855115     2.72250146
H      3.18969204     1.89631343     2.61699619
O      2.37570560    -2.36277416    -2.30255635
H      1.66273326    -1.73486137    -2.75007426
H      3.24714182    -2.00635112    -2.53745438
O     -2.31402188     2.39322779    -2.29742879
H     -2.09715269     1.98537735    -1.50096589
H     -1.51024809     2.56332242    -2.83756500
O     -2.29393320    -2.32154194     2.30215148
H     -1.96752079    -1.98142406     1.55188010
H     -1.57779708    -2.54307795     2.83164663
O     -0.01227761    -0.01807549     3.75127564
H      0.62753789     0.69814452     3.29794811
H      0.51618825    -0.73924119     4.13652036
O     -0.04576677     0.04542226    -3.76099212
H      0.53906601    -0.63547120    -3.33853397
H      0.57565643     0.65488914    -4.19473666
18
water clusters train frame=1040
O      2.75980693    -0.07553149     0.08884485
H      2.30105125     0.83827477     0.09550079
H      2.82201030    -0.14916346     1.08129426
O      1.31226333     2.34027476    -0.20129234
H      0.48249819     2.47717669    -0.14252305
H      1.57242486     2.35277508    -1.12223265
O     -1.39868451     2.33761805     0.14946310
H     -1.90900760     1.46213714     0.13240124
H     -1.30685851     2.56306717     1.09428743
O     -2.69868338    -0.04982142    -0.16165672
H     -2.30627007    -0.81789058    -0.11006540
H     -2.86524765     0.21946812    -0.99922655
O     -1.36419003    -2.46584922     0.24449809
H     -0.45662280    -2.48048015     0.19767312
H     -1.57013647    -2.42603054     1.05967656
O      1.46961855    -2.45410776    -0.17070601
H      1.82638740    -1.55063283    -0.08895922
H      1.31911723    -2.64378674    -1.09968871
18
water clusters train frame=1041
O      1.57515927    -0.03497465     0.10880896
H      0.83413225     0.50261009    -0.02606364
H      1.75686708    -0.11396142     1.02831657
O     -0.80515080     1.35841245    -0.10148114
H     -0.70434352     1.46628065     0.93363222
H      0.01417038     1.45546145    -0.29134267
O     -0.79546679    -1.26241330     0.00591057
H      0.09858511    -0.72373271     0.07754177
H     -0.94002276    -1.62576308     0.96650893
O      1.62706990    -0.04159673     2.64292350
H      1.63082182     0.02357293     1.78697766
H      2.41248596    -0.07787292     2.96406230
O     -0.70775931     1.37215795     2.69738722
H     -0.72408777     0.33789082     2.65635051
H     -0.83611068     1.58666404     1.81512797
O     -0.72587582    -1.34442228     2.56409497
H     -0.82934157    -1.28465326     1.80971650
H      0.06419508    -1.34904205     2.98602973
18
water clusters train frame=1042
O     -0.08074775     0.00283059     0.01329096
H      0.91461891     0.01525162     0.00605185
H     -0.31682858    -0.01626070     0.88394425
O      2.83570566    -0.01385319    -0.08963908
H      3.20506804     0.77063250     0.14658483
H      2.55742607    -0.31264841     0.88905396
O      4.13657469     2.41005513     0.40761824
H      3.68647826     3.20131063     0.26553215
H      4.24402269     2.30226466     1.32637770
O      1.41342389     2.34034261     0.31006865
H      0.95830861     1.49568141     0.32175107
H      1.42608426     2.46958834     1.33471051
O      2.82698332     4.68605256     0.01136951
H      1.68804784     4.71202264    -0.02077629
H      2.91729068     4.70075339     0.92404446
O      0.01039058     4.62440137    -0.07326102
H      0.46971284     3.87253731     0.11659468
H     -0.22111678     5.10688863     0.82786925
18
water clusters train frame=1043
O      2.25206198     2.28627232     2.40399128
H      1.69895032     1.80311069     2.67944862
H      3.19831661     1.92677732     2.39713252
O      2.28755060    -2.34737176    -2.33162078
H      1.74706839    -1.79633392    -2.72156017
H      3.26078843    -2.07563970    -2.51971042
O     -2.44895480     2.22073174    -2.35589635
H     -2.17841918     1.99064560    -1.49096503
H     -1.56661028     2.57941183    -2.94183836
O     -2.46138218    -2.39201682     2.37129703
H     -1.95594173    -1.96461319     1.57645674
H     -1.55155525    -2.47036737     2.88345434
O     -0.01305969     0.01512725     3.86262530
H      0.70430152     0.53264247     3.38877317
H      0.57734291    -0.68097355     4.12054791
O     -0.02930102    -0.15254572    -3.76851247
H      0.69620820    -0.64891242    -3.32226519
H      0.57661013     0.60247214    -4.12072252
18
water clusters train frame=1044
O      2.64609455    -0.04952785     0.14910340
H      2.31918894     0.68267878     0.15815362
H      2.95842583     0.02374048     1.13360906
O      1.42100150     2.34745228    -0.10696065
H      0.36485371     2.46161721    -0.12685805
H      1.36309742     2.40723652    -1.15972795
O     -1.38973833     2.31372669     0.14245105
H     -1.87442751     1.55756799     0.00792978
H     -1.33504642     2.45854450     1.07449582
O     -2.78377777    -0.01398509    -0.20622100
H     -2.43581757    -1.03573074    -0.09528146
H     -2.93273731     0.29761390    -1.00382465
O     -1.39483255    -2.30155863     0.15833711
H     -0.44358415    -2.48232221     0.07384374
H     -1.67192469    -2.39373482     1.27999601
O      1.46032801    -2.41293259    -0.24584233
H      1.80303263    -1.71471892    -0.12633608
H      1.33493235    -2.55989351    -1.01193697
18
water clusters train frame=1045
O      1.58318092    -0.06454563     0.00315796
H      0.69883201     0.45318761    -0.04734566
H      1.85878703    -0.17425578     0.98074166
O     -0.82313857     1.25737500    -0.01369777
H     -0.78081696     1.35136671     0.96778586
H      0.15632897     1.35498234    -0.22176715
O     -0.83019821    -1.42858681    -0.00540228
H     -0.00727490    -0.96320323     0.02788033
H     -1.00610384    -1.48973005     0.93562777
O      1.51995391    -0.02282536     2.72549065
H      1.59451887    -0.00052782     1.76841140
H      2.51089887     0.03195582     2.94536597
O     -0.77659846     1.48033551     2.71919742
H     -0.79002431     0.35391703     2.74755118
H     -0.82181227     1.64346586     1.71829446
O     -0.72983915    -1.41986323     2.75009197
H     -0.80778257    -1.28377303     1.71280782
H      0.17745498    -1.36841019     2.95286816
18
water clusters train frame=1046
O     -0.01420373     0.10814594    -0.05688761
H      0.94933213     0.07850964     0.09857210
H     -0.31439296    -0.00677064     0.88378153
O      2.83629318     0.00872800    -0.03373494
H      3.18438129     0.76198032     0.14318343
H      2.59319426    -0.45747023     0.88061533
O      4.14730022     2.30389445     0.42937855
H      3.62799271     3.22831176     0.20214531
H      4.25684473     2.27235263     1.36222695
O      1.47678224     2.30416310     0.53946267
H      0.91973660     1.56811980     0.30050891
H      1.52890582     2.46707271     1.27411260
O      2.74453226     4.69138129     0.07966620
H      1.81193099     4.68622709     0.06114550
H      2.95645354     4.62925397     0.87859987
O      0.03826423     4.75232023    -0.02274024
H      0.47702162     3.88063649     0.20234547
H     -0.09289182     5.09475706     0.83402707
18
water clusters train frame=1047
O      2.23793002     2.42520232     2.35845493
H      1.60701631     1.78053002     2.67755605
H      3.23074649     2.00125619     2.55545584
O      2.41775900    -2.14657194    -2.30612195
H      1.64662364    -1.67455622    -2.76289645
H      3.17482317    -1.90916963    -2.53593675
O     -2.43255223     2.30338007    -2.41156565
H     -2.05425738     2.01793286    -1.54757788
H     -1.44010485     2.55171514    -2.93637580
O     -2.43101923    -2.36090728     2.41824161
H     -1.98321008    -1.94209787     1.44819540
H     -1.64647012    -2.35752691     2.85124952
O     -0.05622485    -0.08104150     3.78444973
H      0.65498126     0.63594151     3.39912006
H      0.52663044    -0.64884119     4.09866558
O     -0.03272101    -0.02631525    -3.84624241
H      0.59531438    -0.68744649    -3.45357602
H      0.65222853     0.51316159    -4.24412225
18
water clusters train frame=1048
O      2.77176315     0.01886157     0.10329787
H      2.25739858     0.79036266     0.11738381
H      2.83274113    -0.23797542     1.07629782
O      1.43623302     2.41175424    -0.14733293
H      0.36700020     2.41955326    -0.12534848
H      1.61611195     2.38996993    -1.15210220
O     -1.37101951     2.38203087     0.08272414
H     -1.85989997     1.57976879     0.11115278
H     -1.28836428     2.49442567     1.09400678
O     -2.76569897     0.03298410    -0.12426914
H     -2.29574013    -0.73858013    -0.13207220
H     -2.87524970     0.17511052    -1.13811058
O     -1.36297203    -2.35999194     0.09410815
H     -0.29664948    -2.34742210     0.08729092
H     -1.58282355    -2.38290583     1.09736538
O      1.32115307    -2.37268589    -0.15840000
H      1.85988799    -1.53408532    -0.11408477
H      1.30119926    -2.52181987    -1.08693650
18
water clusters train frame=1049
O      1.55510499     0.00153840    -0.09938084
H      0.75366974     0.53826890    -0.05002142
H      1.71069600    -0.13955529     0.99681959
O     -0.83573249     1.43953517     0.11541526
H     -0.69507349     1.33023492     0.96001814
H      0.12556396     1.46373870    -0.32573477
O     -0.77909494    -1.29902173    -0.06410165
H      0.04509866    -0.89055202     0.09774024
H     -1.12623109    -1.43982817     1.07103739
O      1.51608977    -0.01473420     2.68589257
H      1.54569079     0.05085044     1.76540160
H      2.48705664    -0.02446577     2.97171884
O     -0.78636216     1.35468220     2.66446798
H     -0.85030279     0.50953732     2.61442779
H     -0.81903793     1.71360422     1.76328115
O     -0.86508621    -1.41641247     2.73656975
H     -0.76842026    -1.22962386     1.72892086
H      0.24840608    -1.28720486     2.81516053
18
water clusters train frame=1050
O      0.09815828     0.06397834    -0.08413301
H      1.10145213     0.00808497    -0.08832913
H     -0.30401683    -0.07470809     0.89327252
O      2.73428404    -0.00986601     0.03322240
H      3.12386434     0.92104523     0.08789169
H      2.56816560    -0.42589143     0.82057687
O      4.18197383     2.30297839     0.36720245
H      3.59506224     3.06438072     0.40297885
H      4.18573329     2.23462457     1.40696876
O      1.49175139     2.47146570     0.22876503
H      0.87785227     1.50357827     0.38377439
H      1.49615725     2.45613848     1.40406454
O      2.63576426     4.68238612     0.07549790
H      1.80310550     4.67089279    -0.01877517
H      3.06370174     4.71447343     0.97310510
O     -0.11813885     4.61243662    -0.04133914
H      0.50268178     3.75978325     0.02390899
H     -0.25982951     4.89469823     0.91843546
18
water clusters train frame=1051
O      2.35271099     2.36092566     2.28081518
H      1.75098855     1.64654508     2.70766098
H      3.21747218     2.03159504     2.57902350
O      2.33185051    -2.33862955    -2.33076240
H      1.66689737    -1.77938146    -2.69364051
H      3.17254435    -1.92892296    -2.52940761
O     -2.36938623     2.39378150    -2.33615054
H     -2.06080272     2.04966040    -1.54484077
H     -1.56335533     2.48687881    -2.87013730
O     -2.34368627    -2.29405641     2.29252759
H     -2.02721066    -2.03543907     1.50772763
H     -1.52829977    -2.56711248     2.88763012
O      0.01421704     0.01478454     3.75588148
H      0.63377534     0.56101061     3.41195725
H      0.48403391    -0.65480695     4.08468284
O     -0.01223744     0.01925714    -3.85737198
H      0.64205943    -0.56686483    -3.43519372
H      0.59810096     0.72302974    -4.21468392
18
water clusters train frame=1052
O      2.79413732     0.04160313     0.24376372
H      2.36840281     0.70164927     0.07786739
H      2.87859509    -0.24764166     0.98712910
O      1.44048108     2.48684310    -0.22654057
H      0.47296095     2.45155156    -0.12470684
H      1.59256305     2.41228364    -0.99312560
O     -1.35374219     2.36783480     0.16704221
H     -1.82683207     1.58971947     0.01011077
H     -1.26589859     2.59666370     1.12863706
O     -2.80283004    -0.02659755    -0.17362251
H     -2.27217803    -0.83420772    -0.08268848
H     -2.93173105     0.13626207    -1.17291259
O     -1.38534099    -2.42617265     0.20417250
H     -0.38230775    -2.31783159     0.03594145
H     -1.49425104    -2.34909368     1.12044146
O      1.35534203    -2.44803269    -0.17123823
H      1.83575722    -1.59681132    -0.04942650
H      1.30149618    -2.52428124    -1.12633369
18
water clusters train frame=1053
O      1.59938359    -0.12167286     0.07245317
H      0.70472616     0.37656513     0.01746776
H      1.84523462    -0.27730736     0.92165254
O     -0.76919636     1.32392024     0.09413847
H     -0.77686528     1.43039956     0.89178450
H      0.11800078     1.34420964    -0.16208897
O     -0.83077542    -1.38568448     0.09238210
H     -0.02317524    -0.95750758     0.00006949
H     -1.02228899    -1.50183552     0.87970001
O      1.66455324    -0.04367971     2.64027134
H      1.56281973    -0.03675718     1.73617249
H      2.51917850     0.05523187     2.97320876
O     -0.72844957     1.38357227     2.68126779
H     -0.82189910     0.43105845     2.51582112
H     -0.81424744     1.65383031     1.81619516
O     -0.70460866    -1.41761098     2.71699411
H     -0.91924563    -1.52365400     1.69380638
H      0.03846497    -1.41309237     2.93581321
18
water clusters train frame=1054
O      0.00837752    -0.07374929    -0.02806989
H      1.01190218     0.00356234    -0.05889254
H     -0.28412059     0.05062468     0.94124179
O      2.74300459    -0.01901623     0.01223066
H      3.18301199     0.83422551     0.17489920
H      2.59001801    -0.27528038     0.91733348
O      4.13308092     2.31828321     0.41486888
H      3.67162977     3.21180178     0.31529151
H      4.21662750     2.22863478     1.35840005
O      1.43191070     2.35807007     0.40084234
H      0.93203100     1.51481476     0.24745183
H      1.39032629     2.46191009     1.35717179
O      2.83586625     4.65770181     0.04461626
H      1.85261225     4.71900093     0.01147458
H      2.99949545     4.63764757     0.87277606
O      0.03682733     4.72570683    -0.04112464
H      0.47585782     3.88591714     0.25321249
H     -0.23916310     5.03994943     0.90317272
18
water clusters train frame=1055
O      2.41894977     2.31408977     2.31398097
H      1.63354597     1.70451076     2.73816453
H      3.18827573     2.06025620     2.50305176
O      2.38556448    -2.35801260    -2.23025133
H      1.71693772    -1.73130409    -2.66577459
H      3.11218278    -1.96079333    -2.44722901
O     -2.42193121     2.41409643    -2.34318017
H     -2.00753660     1.99037265    -1.48247283
H     -1.55328490     2.50837032    -2.81095866
O     -2.30621417    -2.33727624     2.33173011
H     -2.05395984    -2.13543779     1.45159214
H     -1.56111927    -2.51651489     2.77728471
O      0.03446224    -0.07451745     3.68180817
H      0.65756656     0.71325966     3.48806794
H      0.53133360    -0.59238721     4.27727902
O     -0.00108375     0.08134200    -3.84820550
H      0.56883848    -0.62970329    -3.46858741
H      0.59252497     0.63535522    -4.13272709
18
water clusters train frame=1056
O      2.85237993    -0.02461208     0.10089985
H      2.23438952     0.83812339     0.21085349
H      2.92207878    -0.25676742     1.11051397
O      1.36555715     2.34054616    -0.18491632
H      0.60592915     2.35285972     0.01149884
H      1.52849190     2.34051843    -1.10558129
O     -1.46556279     2.31012403     0.14433812
H     -1.88916467     1.64956049     0.06187840
H     -1.31943569     2.70627594     1.09839683
O     -2.79427445     0.13681561    -0.15548994
H     -2.41576821    -0.73293578    -0.05036320
H     -2.88317796     0.20708903    -1.27546939
O     -1.36078414    -2.32611761     0.13456049
H     -0.51842143    -2.42464460     0.08346271
H     -1.50372489    -2.42081710     1.13924549
O      1.26805232    -2.40002105    -0.08425873
H      1.83679563    -1.55634564    -0.11783851
H      1.17090171    -2.63718200    -1.16152618
18
water clusters train frame=1057
O      1.56929210     0.02373601    -0.07568655
H      0.76733046     0.54636897    -0.05929675
H      1.73567765    -0.19156210     0.92163635
O     -0.76296221     1.34081970    -0.04988855
H     -0.83901202     1.39686957     1.01050592
H      0.11482468     1.35426096    -0.25605576
O     -0.76979431    -1.40882089     0.02207808
H      0.02465718    -0.93128258    -0.01861609
H     -1.03477849    -1.53948149     0.98952428
O      1.59278825    -0.01064698     2.63306772
H      1.62110375     0.03967641     1.75597841
H      2.52119483    -0.05704090     2.88790942
O     -0.75401964     1.42310172     2.69975857
H     -0.81967341     0.44147475     2.61938413
H     -0.79901363     1.61289089     1.72231690
O     -0.88991168    -1.39475941     2.63648330
H     -0.82824166    -1.38536402     1.82472112
H      0.09631780    -1.39763338     2.97059925
18
water clusters train frame=1058
O      0.04486316    -0.01084879    -0.08151826
H      0.97357250    -0.02441346     0.02206004
H     -0.20908344     0.00774128     0.92557626
O      2.81447177     0.06638783     0.02647122
H      3.22585631     0.83867245     0.08058430
H      2.51444894    -0.18228567     0.94904889
O      4.24764243     2.38493815     0.36499201
H      3.74521694     3.23077520     0.33678456
H      4.26042897     2.25248714     1.35269493
O      1.37104062     2.28024840     0.44237448
H      0.93083010     1.45841942     0.26173640
H      1.38540627     2.46219142     1.35714019
O      2.78808535     4.80855657    -0.01611342
H      1.76792162     4.66502788    -0.08429088
H      2.99344074     4.64832997     0.98396226
O      0.06627687     4.68736705     0.01428272
H      0.47089095     3.90555854     0.14422316
H     -0.22240389     4.95270751     0.91039677
18
water clusters train frame=1059
O      2.33058398     2.19148089     2.17380631
H      1.80982239     1.62761589     2.68581480
H      3.23794860     1.96524167     2.63918235
O      2.40285191    -2.51503844    -2.37451654
H      1.85813767    -1.57959855    -2.58097346
H      3.20907418    -2.12277393    -2.48761259
O     -2.40601515     2.37693347    -2.27293613
H     -1.96172567     2.02567474    -1.40577566
H     -1.54149295     2.54006663    -2.77258272
O     -2.34658460    -2.31136463     2.23737365
H     -2.05469334    -1.98733667     1.47664386
H     -1.63375865    -2.45640021     2.94387346
O      0.04495180    -0.12326614     3.71339241
H      0.70638646     0.60426448     3.37052293
H      0.58248625    -0.70728118     4.22595695
O      0.18132446    -0.04809817    -3.84354559
H      0.56514306    -0.72139840    -3.35137464
H      0.48098106     0.67476004    -4.22963064
18
water clusters train frame=1060
O      2.72422495    -0.04275354     0.16099482
H      2.27911802     0.87037531     0.12410423
H      2.82607303    -0.15336414     1.04948709
O      1.46240533     2.36866647    -0.17674747
H      0.44436696     2.42221733    -0.08561773
H      1.52158420     2.35153377    -1.08508756
O     -1.31512288     2.44041338     0.16091180
H     -1.84722617     1.64034392     0.08234285
H     -1.22554953     2.59609188     1.09182001
O     -2.78624178    -0.05012109    -0.12357982
H     -2.30474069    -0.78513512    -0.11354510
H     -2.85981976     0.20845263    -1.06908199
O     -1.41266594    -2.34218513     0.15624792
H     -0.49503907    -2.36331792     0.08308087
H     -1.52508647    -2.37633374     1.06305410
O      1.38491637    -2.36318063    -0.17851496
H      1.81789896    -1.58496296    -0.04430513
H      1.29389571    -2.53191343    -1.06959118
18
water clusters train frame=1061
O      1.61777850     0.03299269     0.02533063
H      0.88326589     0.43996637    -0.04007766
H      1.80186754    -0.13862306     0.92863833
O     -0.76432944     1.36348760    -0.04129625
H     -0.86824856     1.33715341     0.93322595
H      0.04277273     1.37583858    -0.27431752
O     -0.77493615    -1.44463986    -0.06733409
H      0.03866172    -0.91856734     0.02487461
H     -0.95374262    -1.55914015     0.91754485
O      1.68835880    -0.07698511     2.76361181
H      1.55301463     0.01985070     1.65920061
H      2.49865350     0.01725683     2.97984987
O     -0.80428267     1.49380867     2.62437899
H     -0.87363391     0.50878669     2.71136523
H     -0.88227574     1.50602159     1.86126080
O     -0.90275307    -1.40689545     2.76851564
H     -0.77165333    -1.38767409     1.72367373
H      0.08677912    -1.41769563     2.97184749
18
water clusters train frame=1062
O     -0.11951573    -0.06057384     0.08821014
H      0.95130205    -0.08410775    -0.02342506
H     -0.26715279    -0.00436949     1.05246938
O      2.86343973    -0.11607284     0.10109453
H      3.35195731     0.70267351    -0.01102696
H      2.52885893    -0.40385310     0.81076464
O      4.24681081     2.35915995     0.30417132
H      3.56515431     3.14824767     0.36735387
H      4.18566443     2.24092675     1.41581443
O      1.45610935     2.30502703     0.33049952
H      0.74388559     1.50942573     0.30890245
H      1.47063330     2.27343087     1.35835890
O      2.82020928     4.50895262     0.06165364
H      1.72674224     4.62767793    -0.02209091
H      3.05212583     4.63114746     0.91350801
O     -0.10435263     4.72349653    -0.23046872
H      0.39999121     3.91471557     0.04310674
H     -0.31474057     5.00480271     0.70231391
18
water clusters train frame=1063
O      2.34138460     2.33826888     2.33078473
H      1.75218132     1.74620863     2.70826061
H      3.20314718     2.03627018     2.52668684
O      2.30023419    -2.30078194    -2.34039643
H      1.72295597    -1.76020634    -2.79561039
H      3.16102165    -2.01004031    -2.57046236
O     -2.39478649     2.35323535    -2.34912477
H     -2.07774547     2.04326498    -1.46125387
H     -1.52587811     2.60971409    -2.89045475
O     -2.31819894    -2.37028880     2.35977496
H     -2.01184789    -2.00836367     1.54089407
H     -1.59986465    -2.50537984     2.82633143
O     -0.01372966     0.01642210     3.79294620
H      0.67994445     0.56175292     3.43087623
H      0.58721592    -0.69698971     4.14596632
O      0.03653802     0.00747933    -3.77831569
H      0.62851813    -0.60138147    -3.34653386
H      0.59883118     0.73279118    -4.23265923
18
water clusters train frame=1064
O      2.80494122     0.02858941     0.20839552
H      2.24799247     0.81335802     0.10542768
H      2.85990815    -0.10295509     0.96177913
O      1.49091390     2.42066120    -0.24019257
H      0.35227339     2.42455386    -0.15756063
H      1.70190743     2.38070645    -1.12509316
O     -1.43297587     2.44437953     0.15762808
H     -1.79888747     1.61651068     0.05053483
H     -1.41476557     2.43037823     1.04463348
O     -2.81323102    -0.01287162    -0.04655978
H     -2.18330222    -0.91995644    -0.09315887
H     -2.91902316     0.10079390    -1.13890530
O     -1.41382761    -2.30052556     0.14363935
H     -0.38731686    -2.35798575     0.11271147
H     -1.56718658    -2.53385046     1.03495902
O      1.38008710    -2.41351334    -0.16983664
H      1.95039620    -1.65443742    -0.09114582
H      1.21260387    -2.55905555    -1.14944274
18
water clusters train frame=1065
O      1.44101493    -0.10014923    -0.03312574
H      0.79404849     0.46580598    -0.01130558
H      1.87904588    -0.12828213     0.81244149
O     -0.66753607     1.44463789     0.04958954
H     -0.78489178     1.32485841     0.93574252
H      0.05763718     1.34270110    -0.28159132
O     -0.78229055    -1.37408581     0.04332698
H     -0.07232837    -0.98433824     0.09752043
H     -0.91868562    -1.41622851     1.00345557
O      1.65268333     0.06166821     2.75214957
H      1.60790912     0.13050373     1.75174810
H      2.42387952    -0.07013347     3.03212926
O     -0.98593438     1.40640210     2.67963901
H     -0.59243489     0.43598618     2.74256504
H     -1.01738001     1.45097684     1.70827217
O     -0.75384096    -1.32010150     2.72547694
H     -0.65875203    -1.41426119     1.79813698
H      0.13953496    -1.44220496     3.03639244
18
water clusters train frame=1066
O     -0.01578942    -0.02450653    -0.01090913
H      0.98283559     0.01277676    -0.02005841
H     -0.30857607     0.03124305     0.91063509
O      2.71042367     0.00119057     0.02238227
H      3.26464978     0.82571909     0.15380331
H      2.59223670    -0.33065697     0.84622120
O      4.11434757     2.32568925     0.40175448
H      3.67881997     3.14294925     0.32024483
H      4.13084039     2.26156083     1.33875698
O      1.34727282     2.34789609     0.43275133
H      0.87022500     1.54435602     0.26626212
H      1.48950622     2.46198973     1.39192304
O      2.77604274     4.69532304    -0.01964711
H      1.83325788     4.67212307    -0.00351385
H      3.00716975     4.69294725     0.89079049
O      0.02121569     4.61838865    -0.01316099
H      0.51420916     3.85819666     0.16363856
H     -0.18176511     5.05306576     0.88547814
18
water clusters train frame=1067
O      2.35212851     2.37015955     2.25217572
H      1.75943950     1.65729257     2.68403570
H      3.17091270     1.91675197     2.45996763
O      2.40601254    -2.35442950    -2.35619544
H      1.68439002    -1.78836505    -2.72492512
H      3.17161144    -2.02477754    -2.60474607
O     -2.26642092     2.31294184    -2.31986380
H     -1.98150079     2.03538380    -1.51738424
H     -1.63587185     2.53693907    -2.90861840
O     -2.32486483    -2.35584397     2.34946772
H     -2.06773896    -2.06921088     1.52011876
H     -1.53965600    -2.52416363     2.86171778
O     -0.02576018     0.03368330     3.77649509
H      0.55821082     0.62491460     3.38579282
H      0.51838582    -0.74947613     4.19295736
O      0.00627022    -0.05544751    -3.88587041
H      0.61106274    -0.56694360    -3.38929941
H      0.54746866     0.68276145    -4.17757754
18
water clusters train frame=1068
O      2.71733951    -0.01981516     0.18161411
H      2.34775974     0.86026174     0.10370725
H      2.89180621    -0.12050434     1.08130805
O      1.32410704     2.39333675    -0.22238670
H      0.51687483     2.50585636    -0.22217303
H      1.56958694     2.28772850    -1.10315610
O     -1.34561485     2.42481322     0.07288203
H     -1.82351616     1.46137241     0.18037982
H     -1.31595729     2.52172659     1.09425003
O     -2.73715703     0.03699146    -0.04419306
H     -2.39552601    -0.86661032    -0.16462803
H     -2.78656667     0.16094242    -1.23802174
O     -1.37782015    -2.50140977    -0.03469893
H     -0.46564820    -2.38244167     0.07110589
H     -1.57594676    -2.26130803     1.13081920
O      1.30007461    -2.48267936    -0.10530951
H      1.85263042    -1.43055725    -0.20370601
H      1.27084862    -2.56791449    -1.06366343
18
water clusters train frame=1069
O      1.62401617     0.02787058    -0.05541812
H      0.72605757     0.47570205     0.00571319
H      1.88057402    -0.14983854     0.91895429
O     -0.72899581     1.33109766     0.02403961
H     -0.82696435     1.39490733     0.90900955
H      0.14473422     1.30431570    -0.26732829
O     -0.86223935    -1.37269653    -0.09372369
H      0.01588224    -0.91806521    -0.01030232
H     -1.01766194    -1.52873787     0.98608527
O      1.56700122    -0.00903532     2.65107435
H      1.67467682    -0.00925528     1.72849245
H      2.55643982    -0.01509682     2.96006364
O     -0.74486664     1.39530946     2.67717775
H     -0.84706618     0.46348433     2.69972848
H     -0.83266894     1.60529287     1.75770376
O     -0.81824349    -1.44415519     2.70621890
H     -0.81986125    -1.35874259     1.79216603
H      0.15152679    -1.32375711     2.91271242
18
water clusters train frame=1070
O     -0.04848080     0.17841937     0.07676616
H      1.07880410     0.01143825     0.06044129
H     -0.18018089    -0.04456018     1.00098029
O      2.74063931     0.00331974     0.01574072
H      3.10502680     0.85064654     0.15996444
H      2.49414350    -0.27128502     0.87212132
O      4.19498263     2.29490621     0.34377369
H      3.60465477     3.15007552     0.23011274
H      4.14404920     2.31011281     1.45959541
O      1.42714431     2.31824515     0.34358187
H      0.86606480     1.58759464     0.39696699
H      1.44486262     2.32891046     1.31187513
O      2.82370236     4.63781769     0.00800416
H      1.85767830     4.59860407    -0.01705268
H      3.02090644     4.72982360     0.86885110
O     -0.06616227     4.67863114    -0.01084680
H      0.44736361     3.79216673     0.20579065
H     -0.07595219     5.03482597     0.91164778
18
water clusters train frame=1071
O      2.34982279     2.34343341     2.33758982
H      1.62880430     1.69877475     2.78659246
H      3.15602636     1.97388486     2.37052328
O      2.30108269    -2.54174878    -2.37785431
H      1.68430799    -1.75030066    -2.76057856
H      3.27683272    -2.03096077    -2.56041777
O     -2.30161586     2.20635745    -2.33386183
H     -1.94275097     2.01787949    -1.45640613
H     -1.49219814     2.50771166    -2.86086597
O     -2.28233628    -2.33906890     2.31511594
H     -2.09144274    -2.15445755     1.45354137
H     -1.55608142    -2.53684841     2.81873299
O     -0.10568701    -0.15892398     3.79846847
H      0.66748415     0.68326776     3.45637850
H      0.52343203    -0.55779451     4.06090395
O     -0.01407151     0.10041178    -3.78468861
H      0.65554765    -0.67022062    -3.41184300
H      0.61302163     0.74670550    -4.18436659
18
water clusters train frame=1072
O      2.72307785    -0.05620099     0.16560537
H      2.25022188     0.81097056     0.10955857
H      2.82031434    -0.15342717     1.07922344
O      1.38575164     2.34265684    -0.19513439
H      0.44972222     2.33124983    -0.07393384
H      1.54972984     2.34120008    -1.06962320
O     -1.47200082     2.39229787     0.18303452
H     -1.85197627     1.55365467     0.11103342
H     -1.29339045     2.50701028     1.04875455
O     -2.80582603     0.08888709    -0.11237102
H     -2.22867853    -0.87952225    -0.11031063
H     -2.79198898     0.17756085    -1.03748068
O     -1.34840788    -2.39417248     0.23830742
H     -0.46371008    -2.44967781     0.10154828
H     -1.62174110    -2.40144955     1.11244896
O      1.38783764    -2.39420061    -0.18567853
H      1.89204095    -1.50622153    -0.10225561
H      1.27815960    -2.54571317    -1.06955941
18
water clusters train frame=1073
O      1.61168483     0.00103166    -0.01275953
H      0.80890264     0.36811214    -0.07264965
H      1.69190343    -0.17645981     1.07828230
O     -0.71730384     1.44829524    -0.00423692
H     -0.82945341     1.36221043     1.01357704
H      0.14650371     1.29893324    -0.27975655
O     -0.82395291    -1.35158141    -0.07430200
H      0.08048414    -0.99316449    -0.00475546
H     -1.04642525    -1.57367127     0.88347381
O      1.58054084     0.09769426     2.68549813
H      1.53585900     0.02547761     1.76471211
H      2.64234331    -0.04290736     2.96934421
O     -0.69175440     1.30060867     2.69813854
H     -0.83336552     0.37401424     2.81407520
H     -0.67895652     1.63855539     1.76336548
O     -0.79639689    -1.27033961     2.57371526
H     -0.79305610    -1.36887977     1.75460350
H      0.26068881    -1.38869797     2.85132995
18
water clusters train frame=1074
O      0.02723268     0.08575772     0.11269150
H      0.83276013    -0.02383720     0.07064200
H     -0.21680178    -0.13339892     0.94569027
O      2.82260296     0.07403278    -0.08316349
H      3.16511069     0.80445140     0.13516510
H      2.57346826    -0.40371687     0.75562207
O      4.00161804     2.30530358     0.52416777
H      3.53245282     3.26487478     0.28895237
H      4.15682878     2.19863777     1.30303096
O      1.40812396     2.28195185     0.42319659
H      0.85268100     1.53599415     0.16335796
H      1.45411279     2.48711843     1.42540121
O      2.79419345     4.82205359    -0.02876547
H      1.82431056     4.64518748     0.00261597
H      2.90939473     4.84215629     1.04075841
O     -0.11809803     4.63526030     0.04014821
H      0.50524379     3.85089459     0.09229317
H     -0.10054756     5.03902385     0.87757211
18
water clusters train frame=1075
O      2.33797769     2.34041640     2.35728925
H      1.73412263     1.66930746     2.72666110
H      3.25373140     1.96574526     2.48932903
O      2.26809407    -2.35807912    -2.35944814
H      1.73725436    -1.71819798    -2.74623498
H      3.25028856    -1.97455109    -2.53718369
O     -2.39542657     2.36629304    -2.35033553
H     -1.97041125     2.09331870    -1.52820562
H     -1.61301020     2.49873331    -2.76475651
O     -2.35627453    -2.30637291     2.42903883
H     -2.11309058    -2.03901348     1.49462647
H     -1.50587340    -2.61781930     2.76087403
O     -0.01146803    -0.05499715     3.69372116
H      0.51203713     0.60549474     3.36967623
H      0.43580182    -0.64065674     4.25746565
O      0.02892816    -0.02982810    -3.75179476
H      0.59605652    -0.67739197    -3.42661844
H      0.59138264     0.64280020    -4.12421405
18
water clusters train frame=1076
O      2.67058263    -0.00955987     0.24540499
H      2.32479167     0.80257827     0.07585668
H      2.81275703    -0.15339189     1.13540274
O      1.36914995     2.39087822    -0.17010330
H      0.43840902     2.47479966    -0.04481110
H      1.56879420     2.32675543    -1.14245044
O     -1.44230131     2.39266440     0.15727752
H     -1.90785441     1.58394899     0.01084923
H     -1.30595263     2.50251536     1.08833917
O     -2.78865340    -0.02307303    -0.14206881
H     -2.26231871    -0.81006030    -0.08751685
H     -2.86505477     0.32008049    -1.07820137
O     -1.37840489    -2.40208652     0.20938666
H     -0.34490223    -2.33216533     0.10879016
H     -1.59130548    -2.49047173     1.17603011
O      1.33269242    -2.39328080    -0.22791515
H      1.86239676    -1.55574641    -0.14499375
H      1.24068824    -2.49877511    -1.06398494
18
water clusters train frame=1077
O      1.63558718     0.13155649    -0.01528414
H      0.68039621     0.51421125     0.03782520
H      1.76781291    -0.20036182     1.13207171
O     -0.80817940     1.36352058    -0.12680017
H     -0.54247996     1.52764294     0.86013207
H      0.20814399     1.38954768    -0.21949421
O     -0.88348979    -1.43766288    -0.09541324
H     -0.00100238    -0.76865380    -0.04934503
H     -0.96931472    -1.39609055     1.02896700
O      1.63370315     0.09052950     2.73191279
H      1.55432403    -0.11494688     1.70871806
H      2.54733854     0.09997569     2.90636951
O     -0.78993504     1.28897791     2.77654879
H     -0.81023239     0.51895112     2.71970884
H     -0.73854460     1.67497116     1.72752647
O     -0.86391526    -1.55041117     2.77417562
H     -0.74145567    -1.31818429     1.84533005
H      0.17955719    -1.18914009     2.89948865
18
water clusters train frame=1078
O     -0.03363139     0.01253694    -0.02761425
H      0.99810019    -0.04935558     0.01959630
H     -0.25880217     0.04122367     0.94341619
O      2.74572871     0.03717822     0.01388477
H      3.21505252     0.79916763     0.07512047
H      2.62316186    -0.26129222     0.89009907
O      4.11855943     2.33128949     0.41613832
H      3.59196037     3.18489892     0.30041543
H      4.14630106     2.22242930     1.39884108
O      1.40620371     2.23737961     0.48816882
H      0.89871485     1.51482932     0.27983468
H      1.43514059     2.43684736     1.35584744
O      2.72836686     4.71613850     0.01403138
H      1.82637229     4.69043501     0.02451999
H      2.97990635     4.70580194     0.96836102
O      0.04275564     4.72381013     0.00802850
H      0.50233019     3.88152518     0.10096143
H     -0.14595488     5.06144361     0.89174260
18
water clusters train frame=1079
O      2.33072082     2.31936854     2.46338084
H      1.79090803     1.80890066     2.69785923
H      3.17195027     1.84205304     2.44012505
O      2.34225742    -2.42155359    -2.39099471
H      1.78601342    -1.69904185    -2.80184472
H      3.18262289    -2.03932875    -2.49174542
O     -2.43896337     2.23071730    -2.30987232
H     -2.04546454     2.06228996    -1.56461659
H     -1.65434168     2.53969858    -2.84874867
O     -2.36203367    -2.30047986     2.37639106
H     -1.97630125    -2.03542653     1.38724000
H     -1.54630668    -2.47097395     2.90266607
O     -0.09772611     0.07105715     3.78313055
H      0.58042851     0.57106995     3.46123875
H      0.58128455    -0.66991796     4.16170674
O     -0.00775246    -0.02287358    -3.76465017
H      0.64876742    -0.62637258    -3.39839987
H      0.60601627     0.61613564    -4.17019722
18
water clusters train frame=1080
O      2.74957166     0.13157852     0.10261329
H      2.19761997     0.73318707     0.10857824
H      2.86247075    -0.06170173     1.09414896
O      1.27151228     2.31760245    -0.26765301
H      0.42514288     2.41108571    -0.10503480
H      1.60725829     2.55337500    -1.13185286
O     -1.36227528     2.42795769     0.05404405
H     -1.77189653     1.60006699     0.07304272
H     -1.30656654     2.58927034     1.04791518
O     -2.81490477    -0.05411407    -0.15849533
H     -2.33653797    -0.75861890    -0.11613593
H     -2.77067368     0.19126183    -1.13169828
O     -1.37651381    -2.28109866     0.27978963
H     -0.55593586    -2.36701819     0.04825945
H     -1.58075384    -2.44091118     1.20068367
O      1.40718904    -2.36038870    -0.23999451
H      1.84576033    -1.62288303    -0.05233681
H      1.45693463    -2.51328948    -1.03404500
18
water clusters train frame=1081
O      1.58404352    -0.03048959     0.06628775
H      0.73785661     0.44356619     0.06953778
H      1.80374998    -0.13632391     0.96562513
O     -0.85489320     1.35454198    -0.01028590
H     -0.77469002     1.36207973     0.98673592
H      0.19232750     1.38009869    -0.24160707
O     -0.78849698    -1.46636104     0.01980455
H      0.04296976    -0.88869667    -0.00015222
H     -0.96086457    -1.53012601     0.93695001
O      1.57451576     0.02074885     2.70096936
H      1.57485785     0.01020213     1.83113249
H      2.47304605    -0.00845018     2.94722188
O     -0.82819324     1.42306359     2.70611664
H     -0.83076067     0.41866335     2.69088059
H     -0.79800825     1.57592147     1.72624824
O     -0.72336468    -1.39657316     2.71499008
H     -0.81066389    -1.36576112     1.76026237
H      0.07479290    -1.43309396     2.95070544
18
water clusters train frame=1082
O     -0.03706880    -0.05379660     0.00974476
H      0.96557825    -0.03746771     0.06732091
H     -0.15111992    -0.07759197     0.90392940
O      2.82277773    -0.13768339    -0.03729526
H      3.22753849     0.79552628     0.17802883
H      2.53127747    -0.38981141     0.91558810
O      4.06581035     2.33150728     0.29508365
H      3.72375763     3.17790487     0.29011104
H      4.19004317     2.21110348     1.45407904
O      1.41920162     2.18389936     0.55366649
H      0.91513824     1.52019876     0.31376542
H      1.41151267     2.39567737     1.34413288
O      2.75157331     4.65267189    -0.05533185
H      1.84127071     4.76651049     0.01775669
H      3.05525715     4.57266805     0.84792851
O     -0.02003046     4.74136984     0.09728620
H      0.36636583     3.88674279     0.14388948
H     -0.25735885     5.10641688     0.88924483
18
water clusters train frame=1083
O      2.38260276     2.33916414     2.27576983
H      1.91474141     1.72663817     2.69587523
H      3.26914003     2.05750877     2.49966811
O      2.27227992    -2.31350568    -2.29767129
H      1.71033141    -1.78207183    -2.79835926
H      3.30580418    -1.96935272    -2.58507358
O     -2.47331709     2.38615664    -2.35649668
H     -1.93871907     2.07999363    -1.39692311
H     -1.67318350     2.54450665    -2.87646689
O     -2.26958132    -2.36419778     2.35991985
H     -2.01444881    -1.91573007     1.67927329
H     -1.56290124    -2.54236060     2.82754195
O     -0.10587250    -0.00008340     3.67108305
H      0.59702654     0.54021177     3.43551542
H      0.57746535    -0.65202138     4.24761237
O      0.11070225     0.01535238    -3.97222611
H      0.73073946    -0.62249547    -3.44179127
H      0.57724316     0.71419890    -4.17163864
18
water clusters train frame=1084
O      2.78931307     0.02560944     0.15560164
H      2.16912952     0.87011161     0.08324277
H      2.79542584    -0.25201612     1.14733914
O      1.34666043     2.45027502    -0.11754954
H      0.35816409     2.38085069    -0.11389994
H      1.55469710     2.41758866    -1.07762746
O     -1.42129676     2.30976993     0.15124962
H     -1.87898907     1.54755303     0.05355831
H     -1.25823741     2.59234710     1.10084388
O     -2.77843401     0.02297924    -0.12160322
H     -2.24962645    -0.77828260    -0.05388823
H     -2.84666494     0.19547249    -1.04202148
O     -1.41071534    -2.35053837     0.16367452
H     -0.36473130    -2.43693523     0.10605312
H     -1.58364521    -2.40211471     1.05723223
O      1.33590085    -2.37673437    -0.11024745
H      1.86067343    -1.59697146    -0.13559397
H      1.29332445    -2.57521092    -1.08245327
18
water clusters train frame=1085
O      1.58696442     0.03584733     0.00687747
H      0.67312390     0.44140945    -0.02675434
H      1.82129951    -0.14968189     0.92660362
O     -0.73460692     1.37068625    -0.05705392
H     -0.77545971     1.45348772     0.92758690
H      0.11168093     1.35407305    -0.22373881
O     -0.74538044    -1.46482885    -0.04864032
H     -0.06657104    -0.87188317    -0.04445865
H     -1.14471902    -1.43095590     0.92221112
O      1.66669290     0.01678577     2.60796853
H      1.62485176    -0.05714460     1.72512191
H      2.50498774     0.05810362     2.83169787
O     -0.76980002     1.46631448     2.66038865
H     -0.83795314     0.43249231     2.67532433
H     -0.88439065     1.64097340     1.77863800
O     -0.84646762    -1.29987690     2.68144318
H     -0.82981289    -1.22570735     1.75176198
H      0.05528954    -1.38696585     2.95253447
18
water clusters train frame=1086
O     -0.20501009     0.03745571    -0.12846543
H      0.89766169    -0.06207842     0.08775368
H     -0.22396069    -0.16963277     1.04804461
O      2.77271937     0.03232380     0.01343275
H      3.31758560     0.87638138     0.09313679
H      2.49137630    -0.19507258     0.94072462
O      4.15113865     2.18045988     0.35540821
H      3.70763172     3.08144821     0.23576616
H      4.32104722     2.17202103     1.36467597
O      1.25040886     2.41806372     0.46681417
H      1.02601317     1.49523906     0.32939803
H      1.43824062     2.47415922     1.36283723
O      2.84776737     4.64785514    -0.00755627
H      1.77654155     4.82140281     0.07578123
H      3.14430718     4.62117144     0.88766544
O      0.07934145     4.77239228     0.13429227
H      0.63538170     3.99335584     0.20496160
H     -0.25248833     4.97731188     0.89940372
18
water clusters train frame=1087
O      2.29155966     2.33878444     2.28993083
H      1.66553381     1.74593149     2.77148958
H      3.21832121     2.03026997     2.62985020
O      2.43021271    -2.29999695    -2.33141591
H      1.73582786    -1.76231020    -2.62990404
H      3.21467643    -2.03436391    -2.49224197
O     -2.40978313     2.36776404    -2.34924834
H     -1.99365824     2.01507381    -1.55106305
H     -1.54902755     2.52150935    -2.79958242
O     -2.29529744    -2.36475066     2.30860207
H     -2.03482292    -2.05784873     1.51361374
H     -1.53760916    -2.60438327     2.83905609
O     -0.06114017     0.04012734     3.74964056
H      0.63459508     0.64535471     3.28240281
H      0.54181606    -0.70668534     4.16125600
O      0.00896628     0.03794901    -3.80365130
H      0.61844746    -0.67090557    -3.34038500
H      0.60026721     0.63353340    -4.08592689
18
water clusters train frame=1088
O      2.69900129    -0.02479832     0.21236124
H      2.36467351     0.79490454     0.10696953
H      2.97019229    -0.19489275     1.06885359
O      1.36093943     2.46948332    -0.11308181
H      0.42598406     2.38430360     0.03574267
H      1.56475060     2.34296851    -1.08246578
O     -1.47300019     2.36972390     0.09391492
H     -1.87374866     1.56028287     0.16774868
H     -1.36417415     2.54711156     1.08891526
O     -2.70566646    -0.03935213    -0.14473562
H     -2.26607287    -0.77600743    -0.09923844
H     -2.84319802     0.22340440    -0.99382888
O     -1.48303309    -2.31436210     0.08304287
H     -0.52884688    -2.40007633     0.21597600
H     -1.60518108    -2.30994732     1.19062718
O      1.39963424    -2.39952860    -0.23368609
H      1.90981868    -1.60110973    -0.05489088
H      1.28985389    -2.59251027    -1.03018539
18
water clusters train frame=1089
O      1.57812967     0.01140023    -0.07082313
H      0.70114158     0.41678071    -0.04377618
H      1.67721389    -0.17474038     0.89385422
O     -0.88797471     1.51474408    -0.00489195
H     -0.75121653     1.40014651     0.80912759
H      0.03704046     1.36343363    -0.17465351
O     -0.78778456    -1.26839049    -0.05594196
H      0.01737199    -0.93481900    -0.00758285
H     -1.19660729    -1.52572888     0.87600100
O      1.58397112    -0.01687530     2.59665854
H      1.56061549     0.06140701     1.84084403
H      2.53680323     0.06098993     3.01223651
O     -0.76874907     1.45591295     2.71675859
H     -0.77242345     0.46668780     2.81645847
H     -0.75050765     1.60163443     1.74052160
O     -0.78359754    -1.19542035     2.59649487
H     -0.76096901    -1.27417983     1.83590434
H      0.16639257    -1.35608601     2.89986547
18
water clusters train frame=1090
O     -0.00681189     0.00487066     0.00255488
H      1.02625108    -0.00251258     0.03334513
H     -0.25168799    -0.00066419     0.92599315
O      2.72054370    -0.01175128    -0.07713602
H      3.22114692     0.91188833     0.19014926
H      2.57911817    -0.33061193     0.86544187
O      4.11727629     2.37376388     0.34431986
H      3.67981986     3.16184410     0.23895456
H      4.22682629     2.24789256     1.39793621
O      1.40688781     2.38518674     0.45625288
H      0.89840283     1.59401779     0.24755516
H      1.46757119     2.51417526     1.41762937
O      2.74565753     4.69722424    -0.02351836
H      1.74222256     4.75234672    -0.00779591
H      2.99584437     4.67637085     0.88437137
O     -0.05164121     4.66941477     0.04956510
H      0.43969823     3.80332780     0.12989067
H     -0.21314131     4.99475646     0.92446186
18
water clusters train frame=1091
O      2.28224076     2.30535117     2.35863502
H      1.78344066     1.65422216     2.76402686
H      3.21268087     2.03492287     2.52230783
O      2.30360093    -2.36506467    -2.24857448
H      1.73399278    -1.80721623    -2.69576289
H      3.14280626    -1.90756362    -2.54874489
O     -2.38618739     2.41824371    -2.27367523
H     -2.06602417     2.03278214    -1.44149831
H     -1.42695338     2.51547419    -2.89500195
O     -2.30716894    -2.41385549     2.43166489
H     -2.07224950    -2.02752947     1.51420014
H     -1.47111334    -2.54086035     2.82894025
O     -0.01973501    -0.08011512     3.69990158
H      0.66883771     0.59325071     3.36788106
H      0.59864105    -0.63532762     4.16161368
O      0.02222716    -0.04442858    -3.74189049
H      0.65096540    -0.66920379    -3.39073819
H      0.57515167     0.63590435    -4.17313623
18
water clusters train frame=1092
O      2.75987909     0.06274127     0.15273282
H      2.34542937     0.83722305     0.13574867
H      2.84056116    -0.24028618     1.12433116
O      1.44862701     2.28861007    -0.17223263
H      0.43063160     2.39887733     0.03117904
H      1.59554406     2.33756246    -1.08092646
O     -1.40183581     2.43812668     0.16777933
H     -1.93043227     1.59401591     0.12605488
H     -1.39261111     2.45637039     1.09579928
O     -2.69234860     0.01681766    -0.06976218
H     -2.27926360    -0.79248476    -0.27867012
H     -2.76485903     0.23917496    -1.01853217
O     -1.30724852    -2.48217244     0.29016944
H     -0.44939256    -2.42805850     0.30586829
H     -1.46203183    -2.40878587     1.14991166
O      1.37591802    -2.35866066    -0.03124937
H      2.01742590    -1.53464707    -0.12522816
H      1.27350494    -2.48002353    -0.88184110
18
water clusters train frame=1093
O      1.60447457     0.02517563    -0.00037647
H      0.78162884     0.44976260    -0.05269672
H      1.82916137    -0.10561361     0.87661919
O     -0.88097842     1.39957390     0.05019282
H     -0.75577564     1.32723862     0.96608403
H      0.18737874     1.33739133    -0.25551911
O     -0.74300181    -1.38917909     0.00174309
H      0.05689788    -0.92567798     0.02470908
H     -0.96759847    -1.52325871     0.91154976
O      1.60963545    -0.00650561     2.65650522
H      1.69012313    -0.00977945     1.73416054
H      2.57279501     0.03507080     2.89129713
O     -0.77728944     1.31027307     2.73521020
H     -0.78747518     0.43390923     2.71338322
H     -0.79458037     1.62300258     1.72491701
O     -0.81500382    -1.41214983     2.66434223
H     -0.79954420    -1.38461235     1.74199076
H      0.15340673    -1.35518183     2.98806235
18
water clusters train frame=1094
O     -0.02545753     0.03620938     0.02527189
H      1.03276592    -0.03288710     0.04370010
H     -0.29148684    -0.03040270     0.98920916
O      2.76628698    -0.08805451    -0.10805790
H      3.18245549     0.85514242     0.15113639
H      2.53672031    -0.24133375     0.89864330
O      4.14438037     2.31911089     0.39353254
H      3.60528697     3.13643487     0.29914755
H      4.21325723     2.23111411     1.36941100
O      1.36605307     2.35122233     0.39587310
H      0.91023046     1.48634480     0.23201826
H      1.49877290     2.39553287     1.45588756
O      2.71940013     4.67874242    -0.04424558
H      1.77483586     4.79319720     0.02472733
H      2.95897031     4.57864965     0.97666582
O     -0.08626298     4.75594725    -0.01205803
H      0.42605557     3.85192769     0.17422356
H     -0.20938801     4.99617986     0.92242358
18
water clusters train frame=1095
O      2.42710956     2.40690085     2.40876839
H      1.71351653     1.70848955     2.68238012
H      3.24167674     1.90122222     2.51549512
O      2.25881920    -2.20935444    -2.27945544
H      1.80367693    -1.66636199    -2.65151321
H      3.19960013    -2.01742378    -2.59111619
O     -2.29091720     2.34915877    -2.21995416
H     -2.06915657     1.92464837    -1.59636609
H     -1.58404580     2.58854977    -2.72836355
O     -2.44809149    -2.44647312     2.50284550
H     -2.00266788    -1.97942477     1.52863040
H     -1.61725735    -2.43905226     2.77302867
O      0.03928870     0.01401148     3.77228742
H      0.62414973     0.54170509     3.41991011
H      0.49286740    -0.58040480     4.09868295
O     -0.04272220    -0.05199354    -3.67287038
H      0.74081595    -0.60819384    -3.37692865
H      0.65235408     0.76937339    -4.21037520
18
water clusters train frame=1096
O      2.77610429    -0.03239257     0.22746674
H      2.25154748     0.84938071     0.11963495
H      2.86750870    -0.16774588     1.04621628
O      1.36215549     2.42112397    -0.13653056
H      0.41011565     2.43605495    -0.04631411
H      1.61910290     2.36401477    -1.08983380
O     -1.45992544     2.39111790     0.20303297
H     -1.88926922     1.57314358     0.03164600
H     -1.23048552     2.46083952     1.08676742
O     -2.82880845    -0.04346377    -0.14597325
H     -2.25758673    -0.82445572    -0.12382693
H     -2.79827751     0.14356608    -1.09930578
O     -1.45415749    -2.39741039     0.14516200
H     -0.36454949    -2.34968072     0.09516639
H     -1.53035222    -2.37361996     1.12754415
O      1.37354015    -2.37193512    -0.19852492
H      1.85699254    -1.51272543    -0.11973474
H      1.32779695    -2.56675437    -1.04877581
18
water clusters train frame=1097
O      1.56975275    -0.04216126     0.01255201
H      0.85343619     0.42449192    -0.04243268
H      1.78371321    -0.06994973     0.92513990
O     -0.83016375     1.38039582    -0.02653608
H     -0.73472905     1.45367686     0.82423941
H      0.05787208     1.36487731    -0.11484919
O     -0.89357415    -1.33725900    -0.04831051
H     -0.05108370    -0.91638460     0.05121830
H     -0.98711280    -1.44859335     0.97585505
O      1.60701658     0.00893473     2.71457184
H      1.54230406     0.00077149     1.80097794
H      2.50722685     0.00101532     2.93674882
O     -0.84290468     1.26220692     2.68194852
H     -0.75369370     0.41997042     2.71676826
H     -0.82982795     1.66658634     1.73608993
O     -0.93823878    -1.48144061     2.60176578
H     -0.80394460    -1.25621858     1.60889561
H     -0.00332977    -1.48906666     2.84276300
18
water clusters train frame=1098
O     -0.01139995    -0.01448973    -0.05243281
H      0.95384649     0.13812194    -0.09264556
H     -0.19800294     0.00370231     0.88598200
O      2.67565536     0.04302049    -0.07731290
H      3.30875410     0.72214241     0.17275116
H      2.68972859    -0.36246913     0.80959969
O      4.22727904     2.35238159     0.39113085
H      3.54070630     3.28356701     0.26483055
H      4.21834135     2.16802800     1.32032205
O      1.44055281     2.26521495     0.28581695
H      0.94108539     1.58547879     0.31053913
H      1.44129173     2.47590055     1.31754243
O      2.75815408     4.68144346    -0.09705034
H      1.72178518     4.73784809    -0.05924087
H      2.99482120     4.72911254     0.94358280
O      0.09436822     4.76979556     0.02871801
H      0.52202685     3.98644451     0.12846385
H     -0.22813544     5.14909076     0.83139450
18
water clusters train frame=1099
O      2.35922263     2.26892192     2.33432238
H      1.75421777     1.70520213     2.73387331
H      3.20214805     2.00618712     2.50158379
O      2.37306780    -2.37058500    -2.28996468
H      1.78198027    -1.75154903    -2.69383507
H      3.24123220    -1.96380422    -2.49211801
O     -2.33237594     2.37391728    -2.33142804
H     -2.04944115     1.96594489    -1.49343200
H     -1.53722443     2.49776868    -2.86760758
O     -2.36968253    -2.38597739     2.36358305
H     -2.01715375    -1.94261789     1.52488141
H     -1.57512300    -2.48154798     2.80389486
O     -0.11208543    -0.02306967     3.77895694
H      0.66676847     0.61159001     3.38148248
H      0.54230414    -0.69747960     4.13845625
O     -0.02209295     0.04789952    -3.76887768
H      0.63542022    -0.55783568    -3.42220483
H      0.54277448     0.64243129    -4.16061936
18
water clusters train frame=1100
O      2.82089817     0.01869484     0.15182897
H      2.28657059     0.74398539     0.07895715
H      2.87107433    -0.15939200     1.15832868
O      1.36213283     2.29762656    -0.13905046
H      0.51457937     2.38197603     0.02496320
H      1.51491252     2.38485580    -1.11286327
O     -1.39030954     2.42972170     0.11644362
H     -1.82744048     1.60334694     0.05018221
H     -1.36232101     2.47557968     1.10016723
O     -2.64502680     0.00212166    -0.07373183
H     -2.28476172    -0.82344924    -0.10887211
H     -2.92719650     0.20649460    -1.05974712
O     -1.41497576    -2.45112867     0.16802185
H     -0.39811537    -2.43932931     0.05627485
H     -1.62573761    -2.39978160     1.14963332
O      1.33810193    -2.41298579    -0.12809605
H      1.87581673    -1.56269550    -0.06084297
H      1.33472885    -2.55018292    -1.14497776
18
water clusters train frame=1101
O      1.55421619     0.07185062     0.04190382
H      0.74798991     0.51791178     0.12013963
H      1.90228796    -0.14592890     0.84417327
O     -0.78872322     1.31699161    -0.00279479
H     -0.81209061     1.46498713     0.84842499
H      0.30925045     1.40242870    -0.28130070
O     -0.93573532    -1.42313532     0.00903000
H      0.06697958    -0.85690501     0.03459451
H     -0.96267796    -1.42087867     0.91137399
O      1.54298890    -0.01344340     2.68540443
H      1.62486027     0.07963091     1.73049738
H      2.49776229     0.08245303     2.89739067
O     -0.82038756     1.38774493     2.82627405
H     -0.85548808     0.56510280     2.53003599
H     -0.86282518     1.70852107     1.76307576
O     -0.81391171    -1.28915815     2.62292783
H     -0.83644064    -1.33295287     1.76214155
H      0.03885266    -1.20875816     2.99760701
18
water clusters train frame=1102
O     -0.05056886    -0.01769539     0.01638893
H      0.96452325     0.02658898    -0.03136458
H     -0.31674848    -0.04990501     0.88059624
O      2.79036543    -0.03494288     0.01577227
H      3.20973256     0.85176190     0.15536200
H      2.55391642    -0.38045601     0.93388171
O      4.17520773     2.36162062     0.46164461
H      3.59882644     3.22323936     0.28486533
H      4.17857268     2.25956684     1.34226294
O      1.42867328     2.30831065     0.40960313
H      0.91031764     1.50648876     0.31039270
H      1.45723400     2.37132441     1.33335249
O      2.78986786     4.64565376     0.00877514
H      1.81302011     4.62932099     0.01310030
H      2.95101756     4.67651371     0.86229252
O      0.05676795     4.72215756    -0.05296803
H      0.53524856     3.85976445     0.17117206
H     -0.18873100     4.97220632     0.90494322
18
water clusters train frame=1103
O      2.33045279     2.26698076     2.35925856
H      1.73208591     1.71361035     2.79710770
H      3.17222032     1.92056779     2.48075289
O      2.22991095    -2.33766504    -2.25607900
H      1.78714837    -1.75202512    -2.72235740
H      3.19269225    -2.04119939    -2.53212153
O     -2.42291662     2.35250285    -2.21733869
H     -2.05074030     1.92197352    -1.46193829
H     -1.52314834     2.60061941    -2.86182139
O     -2.34373171    -2.33115065     2.43101445
H     -1.96042813    -1.96732481     1.57024110
H     -1.50654739    -2.51704866     2.92541508
O     -0.00760641    -0.04726563     3.81283901
H      0.69813569     0.65626274     3.27490126
H      0.52070749    -0.65902797     4.06803812
O      0.03746854    -0.02077360    -3.75668783
H      0.76565400    -0.61310018    -3.29237452
H      0.61477164     0.54282385    -4.09643119
18
water clusters train frame=1104
O      2.74196837     0.07339708     0.11873215
H      2.40363146     0.82121787     0.19879243
H      2.84476476    -0.03573167     1.18381736
O      1.32969249     2.43428504    -0.23526215
H      0.52599636     2.25156392    -0.11716779
H      1.61883002     2.41405269    -1.16070778
O     -1.48962076     2.59983427     0.05450705
H     -1.63265465     1.46906293    -0.03424270
H     -1.20319905     2.62155746     1.09718035
O     -2.73000516    -0.00471566    -0.21925739
H     -2.38700871    -0.75801224    -0.09500470
H     -2.74908485     0.05908101    -1.05472346
O     -1.35747662    -2.38130462     0.17120489
H     -0.38753257    -2.40833723     0.16553894
H     -1.59121394    -2.42947512     1.11975598
O      1.42102517    -2.36978884    -0.26492244
H      1.74990120    -1.52420555    -0.03034572
H      1.23094785    -2.60076949    -1.00064394
18
water clusters train frame=1105
O      1.62034912     0.04362929    -0.01209672
H      0.69727359     0.42978649     0.01966740
H      1.84146122    -0.14965606     0.89010543
O     -0.76914714     1.32133627    -0.03153480
H     -0.77854137     1.40897237     1.04520596
H      0.09815922     1.41805378    -0.29516696
O     -0.78108793    -1.33127324    -0.04580837
H     -0.01469484    -0.89878656    -0.03650859
H     -0.99029334    -1.50859174     0.90675120
O      1.64035835     0.02458547     2.78314574
H      1.63566601     0.05212342     1.71220030
H      2.54273129     0.02830109     2.88529649
O     -0.76914359     1.36009919     2.73816687
H     -0.78756611     0.42459918     2.70211490
H     -0.75958259     1.62544554     1.73823030
O     -0.74683441    -1.42599744     2.66591246
H     -0.89031479    -1.43214670     1.69267713
H      0.08971055    -1.36937939     2.97181670
18
water clusters train frame=1106
O     -0.02805448    -0.06593997     0.07159655
H      0.97125375     0.02064584     0.07930684
H     -0.26302374     0.00129373     0.93276905
O      2.71591716    -0.11319798     0.10065111
H      3.30997188     0.71600777     0.03947373
H      2.54933162    -0.40428069     0.83079234
O      4.16178987     2.27508830     0.34641251
H      3.71054855     3.15010213     0.36998984
H      4.25116928     2.18465049     1.45860350
O      1.28193397     2.29617169     0.47675088
H      0.93170950     1.57299692     0.35187718
H      1.44823103     2.43957921     1.39199655
O      2.75737324     4.69052184    -0.04803261
H      1.74607566     4.62549816    -0.05978113
H      3.09756379     4.60494974     1.02875152
O      0.02770227     4.64537365     0.04409847
H      0.39318307     3.95702233     0.15370575
H     -0.21409656     5.02044334     0.83987079
18
water clusters train frame=1107
O      2.33632470     2.47420289     2.17760205
H      1.73595220     1.72621620     2.73400011
H      3.25477442     2.02298594     2.72566987
O      2.28440080    -2.46307902    -2.23714392
H      1.67241918    -1.65310766    -2.74866898
H      3.17912818    -1.93831780    -2.54607947
O     -2.26630260     2.23781365    -2.40067955
H     -1.96382435     1.99287126    -1.44361600
H     -1.58209017     2.54122191    -2.78624598
O     -2.41241575    -2.28117822     2.23742730
H     -1.94523198    -1.96188823     1.45481537
H     -1.54470523    -2.55231393     2.80650214
O     -0.08441263    -0.16305941     3.58250812
H      0.64999511     0.44575124     3.49399823
H      0.48648122    -0.83826200     4.01411104
O      0.04860317    -0.08594074    -3.80041506
H      0.64082260    -0.72117993    -3.53021319
H      0.39118057     0.67013586    -4.02878863
18
water clusters train frame=1108
O      2.75281380     0.06635688     0.13381739
H      2.28002522     0.87306745     0.07605138
H      2.90873455    -0.21503142     1.09324946
O      1.44831190     2.42517122    -0.08866321
H      0.48281154     2.40575806    -0.12025001
H      1.54962488     2.40927908    -1.09408980
O     -1.38073778     2.43399660     0.13363496
H     -1.80685021     1.55985893     0.11170354
H     -1.32234206     2.48642888     1.10761122
O     -2.80518889     0.04722877    -0.16170901
H     -2.25544796    -0.76629580    -0.03631389
H     -2.84356240     0.13256572    -1.06760287
O     -1.43053369    -2.52725138     0.17457487
H     -0.38738127    -2.32627343     0.06006469
H     -1.57604124    -2.38273198     1.04603756
O      1.36929668    -2.47002213    -0.17036856
H      1.86642112    -1.58161786    -0.09042299
H      1.31122292    -2.44645613    -1.07047960
18
water clusters train frame=1109
O      1.68408919    -0.00996994    -0.04355733
H      0.60916741     0.45265511     0.05575706
H      1.74174608    -0.10067358     0.85382994
O     -0.84918741     1.49085579     0.10230386
H     -0.74040051     1.36008184     0.88014917
H      0.07019989     1.30592919    -0.26157780
O     -0.76444370    -1.41510195    -0.06784242
H      0.11174745    -0.97819286     0.00876559
H     -1.04952915    -1.48945666     0.89327611
O      1.52911162     0.02189992     2.70244755
H      1.56112351    -0.02082775     1.75622550
H      2.58446922     0.06976308     2.89654395
O     -0.78106893     1.38448925     2.63378345
H     -0.85767040     0.41147107     2.63884341
H     -0.84478540     1.65053811     1.64945649
O     -0.72288719    -1.35498146     2.81486464
H     -0.82602369    -1.32527456     1.78417090
H      0.04985880    -1.38777450     2.79484670
18
water clusters train frame=1110
O      0.09937077    -0.16222431     0.21413563
H      0.91516013     0.06131509     0.00060607
H     -0.26036809    -0.09240631     0.99683458
O      2.79295194     0.03424420     0.00794286
H      3.21633281     0.75819562     0.19049394
H      2.63754529    -0.35296697     0.93614447
O      4.06345948     2.24113812     0.40216187
H      3.71077525     3.17414367     0.30848723
H      4.13143912     2.29308383     1.44021412
O      1.44917702     2.30295754     0.30206143
H      0.80011562     1.51760514     0.37150486
H      1.51733188     2.39573586     1.33827568
O      2.77876417     4.77239085     0.12146816
H      1.77080957     4.76774275     0.08127336
H      2.91042732     4.67718616     0.89580551
O     -0.00232657     4.67344325     0.04159122
H      0.32118766     3.92703816     0.02276074
H     -0.09481026     5.03356510     0.82792808
18
water clusters train frame=1111
O      2.29974709     2.35546187     2.30920555
H      1.74220990     1.74947253     2.66547508
H      3.20955971     1.99744754     2.47640549
O      2.34692796    -2.30946369    -2.38014822
H      1.79283501    -1.72579874    -2.71606003
H      3.24842719    -2.01593185    -2.52380751
O     -2.34523790     2.23899065    -2.38420005
H     -2.01001309     1.94553249    -1.51213759
H     -1.58073001     2.47879407    -2.87021668
O     -2.33904843    -2.34262391     2.33825662
H     -2.02154106    -1.98806369     1.41430249
H     -1.58498168    -2.52456982     2.81282304
O     -0.00459945     0.01790190     3.79127527
H      0.56547620     0.62375180     3.40566769
H      0.57292757    -0.67357612     4.13164331
O      0.01732304    -0.05653026    -3.73032564
H      0.65419515    -0.71824163    -3.37911203
H      0.48058649     0.75141305    -4.12467946
18
water clusters train frame=1112
O      2.75159085     0.04019083     0.20813821
H      2.36362737     0.77543857     0.14039862
H      2.81283888    -0.11226455     1.09822189
O      1.30789730     2.36325033    -0.19179439
H      0.49281028     2.37192463    -0.07434388
H      1.56597292     2.31194065    -1.04361565
O     -1.34992140     2.34272311     0.18595638
H     -1.88095489     1.61597847     0.13973711
H     -1.39374234     2.49279840     1.01871399
O     -2.77241390     0.03417161    -0.12374776
H     -2.30594000    -0.85687642    -0.13109361
H     -2.86689810     0.08075636    -1.11757506
O     -1.38734015    -2.35995642     0.19232402
H     -0.35668746    -2.38266458     0.05580376
H     -1.60417769    -2.39101224     1.03443640
O      1.42381575    -2.36608653    -0.15923979
H      1.90746913    -1.63759535    -0.09975187
H      1.26575297    -2.52573340    -1.15255999
18
water clusters train frame=1113
O      1.68554567    -0.05602862     0.13225899
H      0.70957294     0.55715804    -0.00417196
H      1.82265535     0.03518777     1.03160335
O     -0.63984898     1.34476961     0.13267841
H     -0.76030986     1.51391372     0.97835702
H      0.11128541     1.34843990    -0.27337855
O     -0.75821236    -1.33886758     0.11340048
H      0.07387685    -0.89522291     0.00264837
H     -1.09015786    -1.37405104     0.93214230
O      1.51261032    -0.09011204     2.75519614
H      1.47249692     0.01177886     1.71516719
H      2.56145462    -0.04205331     2.96986660
O     -0.74427951     1.43165382     2.59302615
H     -0.82478634     0.38516755     2.77179547
H     -0.83529344     1.73700549     1.74259246
O     -0.94477741    -1.24657080     2.61634190
H     -0.89095696    -1.48898615     1.76735800
H      0.11045620    -1.37801396     3.02228381
18
water clusters train frame=1114
O     -0.09890089     0.02431057     0.01549254
H      0.90472027     0.00378366     0.02396110
H     -0.18759015     0.07263060     0.95073547
O      2.70951976     0.00480203    -0.02225560
H      3.25539472     0.80208986     0.12677574
H      2.58033860    -0.32576874     0.87021148
O      4.17465164     2.37282407     0.42700527
H      3.62911271     3.21423142     0.28932369
H      4.19845064     2.20697989     1.36104074
O      1.40383644     2.33526063     0.37710431
H      0.88484690     1.43499515     0.26455018
H      1.37346878     2.44690788     1.36879875
O      2.75562813     4.72036310    -0.05152719
H      1.77773463     4.72003457    -0.03177182
H      3.06255353     4.74502408     0.87434150
O      0.00376579     4.60180319     0.07897876
H      0.44048056     3.86940443     0.08776048
H     -0.16928271     4.96680401     0.87736404
18
water clusters train frame=1115
O      2.32069062     2.31761554     2.41844148
H      1.68300982     1.76108552     2.72665290
H      3.13132265     1.99216309     2.62255490
O      2.27175409    -2.33199694    -2.24301222
H      1.77746353    -1.77686837    -2.76847329
H      3.20202303    -1.87157635    -2.65963092
O     -2.26851689     2.40839703    -2.26232360
H     -1.90502027     2.00869619    -1.48515212
H     -1.58430802     2.55112542    -2.79861441
O     -2.36719425    -2.41734720     2.26411352
H     -1.92139653    -2.02084524     1.51557886
H     -1.64442490    -2.54472485     2.92258261
O      0.04878742     0.07981529     3.71184186
H      0.61697191     0.63294748     3.37990264
H      0.50884670    -0.63651209     4.01476119
O      0.01104458    -0.13057205    -3.70377970
H      0.62132672    -0.63515457    -3.38792850
H      0.58218810     0.68464259    -4.22511324
18
water clusters train frame=1116
O      2.69109085     0.15422854     0.03727066
H      2.27154465     0.85509075     0.05287371
H      2.87776906    -0.03396374     1.15365635
O      1.50196764     2.44033313    -0.26392695
H      0.51589767     2.47969385    -0.06554498
H      1.50498379     2.32725797    -1.06650395
O     -1.29610534     2.56174903     0.21042636
H     -1.93027643     1.52462017     0.14695740
H     -1.25345940     2.45543772     1.01232192
O     -2.69360457    -0.02987992    -0.12345526
H     -2.33567040    -0.81336506    -0.22619741
H     -2.85697628     0.22846956    -1.00552675
O     -1.42112747    -2.35885383     0.00708301
H     -0.46250890    -2.43624407     0.00076431
H     -1.64290892    -2.45551818     1.07016406
O      1.22303736    -2.37175375    -0.03477317
H      1.82115158    -1.49086051     0.00900321
H      1.27217085    -2.45308192    -1.12247004
18
water clusters train frame=1117
O      1.61953124     0.12797932    -0.06157152
H      0.73777009     0.40213581     0.02953564
H      1.80281796    -0.06771770     0.89978362
O     -0.74024291     1.40489920    -0.04307808
H     -0.82767551     1.32426220     0.93242059
H      0.20163907     1.33675140    -0.23926638
O     -0.86041627    -1.39862068    -0.01565850
H      0.01977790    -0.95567877    -0.03344683
H     -0.96420697    -1.48378718     0.88028415
O      1.64953585     0.00243349     2.72137140
H      1.64750072     0.04508433     1.73787024
H      2.48508870     0.01122865     2.89417435
O     -0.80988688     1.44107030     2.77993783
H     -0.82609154     0.42336431     2.66628571
H     -0.80396769     1.62994304     1.82367155
O     -0.75389820    -1.36619431     2.73397484
H     -0.80736060    -1.40415228     1.74755879
H      0.10471520    -1.30005461     2.89170784
18
water clusters train frame=1118
O     -0.16042278    -0.03631902    -0.07864244
H      0.89949064    -0.00640371    -0.04159699
H     -0.26995802    -0.00993103     0.94573752
O      2.69500677    -0.04462311    -0.09075209
H      3.21225526     0.88166487     0.18239119
H      2.73698329    -0.22274053     0.83831678
O      4.17209659     2.35483202     0.40351379
H      3.66391396     3.09962516     0.27822424
H      4.18076600     2.27305192     1.35502178
O      1.34249913     2.39266521     0.40980482
H      0.99227282     1.52026538     0.37928915
H      1.39859395     2.43923438     1.31628024
O      2.78474647     4.74486632    -0.09347792
H      1.88521108     4.71703024    -0.05418571
H      2.93745600     4.65514995     0.92071518
O      0.01730827     4.62791125     0.07378987
H      0.42497384     3.78034008     0.19887950
H     -0.17350682     4.99820663     0.90884202
18
water clusters train frame=1119
O      2.19368797     2.25003321     2.31291057
H      1.62730701     1.75109649     2.63811859
H      3.22615735     1.90231024     2.59364762
O      2.37391656    -2.42406577    -2.46948547
H      1.67436272    -1.70554668    -2.71700653
H      3.14231711    -1.87922087    -2.47959626
O     -2.40415327     2.37474590    -2.48345228
H     -2.28468007     2.01642290    -1.56301377
H     -1.64842923     2.57819665    -2.95530742
O     -2.28039276    -2.32736808     2.24026174
H     -2.08512413    -1.99845311     1.57174506
H     -1.48317836    -2.54901853     2.72082417
O      0.03394588    -0.02828910     3.81677748
H      0.58936725     0.66657678     3.39774036
H      0.56166003    -0.63400336     4.01923036
O     -0.01290193    -0.02999391    -3.70737425
H      0.58301528    -0.62331612    -3.48226963
H      0.56527989     0.57646180    -4.16468464
18
water clusters train frame=1120
O      2.77942276    -0.02735461     0.13631736
H      2.34615181     0.83906277     0.13393449
H      2.91276993    -0.15864326     1.09152605
O      1.35594481     2.42889654    -0.08969178
H      0.34901005     2.36710383    -0.04483577
H      1.58159001     2.32759402    -1.07308602
O     -1.42603476     2.35202718     0.17161914
H     -1.90378680     1.48187918     0.03414765
H     -1.33093469     2.65126427     1.09758192
O     -2.71402243    -0.00167767    -0.13565600
H     -2.31833423    -0.87639246    -0.12457419
H     -2.80694619     0.09938171    -1.16253671
O     -1.41354503    -2.36751323     0.07991365
H     -0.41316092    -2.36513588     0.04045751
H     -1.59176433    -2.40736645     1.14710797
O      1.47255835    -2.42769937    -0.15487861
H      1.85935188    -1.56187810    -0.07405873
H      1.26097838    -2.57499810    -1.12191380
18
water clusters train frame=1121
O      1.49718746     0.06013132    -0.02183267
H      0.74026831     0.47931783    -0.01435150
H      1.89362863    -0.07228798     0.91430193
O     -0.85450363     1.40791837     0.07062670
H     -0.77554379     1.41161165     1.02027377
H      0.08393718     1.34818276    -0.23698744
O     -0.84551192    -1.44355583    -0.06546962
H      0.06079521    -0.97843315     0.04912198
H     -1.03774096    -1.47537081     0.98917222
O      1.60577121     0.06793806     2.78638481
H      1.67154338    -0.03641559     1.62870911
H      2.57888788     0.02065762     2.93517256
O     -0.79909221     1.39420795     2.73039591
H     -0.75833361     0.38468506     2.62654001
H     -0.79652378     1.56565003     1.86058402
O     -0.86444873    -1.37760800     2.65862342
H     -0.75941814    -1.36304472     1.72421627
H      0.04888455    -1.42701704     2.92209003
18
water clusters train frame=1122
O     -0.10681036    -0.07705459     0.06389208
H      0.93918884     0.02010666     0.01253271
H     -0.41363004     0.19900238     0.92674844
O      2.68038520     0.01408734     0.04410039
H      3.25409150     0.80587496     0.11142160
H      2.65140742    -0.19060391     0.81996181
O      4.11846872     2.21601906     0.46499428
H      3.56759141     3.01973751     0.25516543
H      4.12943937     2.22348876     1.47586737
O      1.45193035     2.27812338     0.38515677
H      0.93455709     1.61297165     0.35028750
H      1.39640084     2.56652720     1.41806147
O      2.77233981     4.58565269     0.07438630
H      1.77090776     4.65933131     0.16534201
H      2.88745200     4.76948627     0.99236238
O     -0.03998712     4.58978284    -0.01202952
H      0.43603793     3.71437049     0.23805567
H     -0.17541834     5.08841274     0.88761100
18
water clusters train frame=1123
O      2.38463103     2.31063492     2.27900369
H      1.69418626     1.82740407     2.72152313
H      3.14606644     2.01385967     2.57899780
O      2.27514951    -2.34080622    -2.32255678
H      1.66044005    -1.70971726    -2.79365297
H      3.23864888    -1.99937261    -2.55407967
O     -2.31247633     2.32483321    -2.34891147
H     -2.00469727     2.00439806    -1.52888218
H     -1.52946218     2.48832018    -2.86058507
O     -2.27495379    -2.36564073     2.39336006
H     -2.05515293    -2.00692643     1.47865582
H     -1.56903799    -2.50806311     2.94159440
O     -0.03355818     0.01757212     3.79564967
H      0.51908713     0.57712702     3.32900244
H      0.52288598    -0.56506261     4.17353567
O     -0.01066562     0.05443301    -3.72916458
H      0.60512128    -0.60824841    -3.36470724
H      0.54977176     0.71510337    -4.18728399
18
water clusters train frame=1124
O      2.76388093     0.07771273     0.08087652
H      2.19401995     0.73946213     0.19867047
H      2.84074757    -0.17222980     1.10735983
O      1.37682202     2.43449151    -0.24036634
H      0.43931475     2.44658857    -0.06832087
H      1.58395071     2.46655640    -1.07162813
O     -1.26381410     2.39137490     0.03763698
H     -1.89054662     1.71049228     0.13356292
H     -1.30368084     2.46288710     1.06308678
O     -2.69186080    -0.14962166    -0.23692468
H     -2.26250728    -0.93932039    -0.03195722
H     -2.77304430     0.16985659    -1.05831316
O     -1.48150064    -2.37432671     0.18271834
H     -0.48907409    -2.29648139     0.04018880
H     -1.61815783    -2.37614911     0.98665346
O      1.37669700    -2.36964402    -0.13517639
H      1.87958752    -1.58025058    -0.11520696
H      1.20253593    -2.56395753    -1.05331203
18
water clusters train frame=1125
O      1.57081597     0.14961461    -0.02304801
H      0.78412777     0.47526929     0.14039345
H      1.69056251    -0.16619852     0.84717602
O     -0.74740191     1.36024891    -0.02170804
H     -0.75818444     1.36000658     0.97543810
H      0.02512797     1.34255015    -0.28887917
O     -0.90516500    -1.43919165     0.06784617
H      0.10078135    -0.97244197     0.06651310
H     -1.06904394    -1.54453115     0.85106942
O      1.50732203    -0.00348050     2.73505275
H      1.67936686     0.13826854     1.72363020
H      2.39967785     0.14828031     2.98062299
O     -0.79510825     1.34654967     2.74643444
H     -0.73239292     0.39328582     2.72119711
H     -0.68289481     1.64083416     1.75014576
O     -0.72320354    -1.39223496     2.73875707
H     -0.84561532    -1.36071439     1.66084267
H      0.01515534    -1.31688909     2.92402410
18
water clusters train frame=1126
O     -0.04373677     0.00234165    -0.08437585
H      0.96617234     0.00983916    -0.04907425
H     -0.26942034     0.04122297     0.93242006
O      2.76368621    -0.02092346     0.05575279
H      3.27948636     0.79448566     0.17887802
H      2.54954189    -0.31531702     0.89709946
O      4.15431706     2.41446347     0.47117542
H      3.68647545     3.18144765     0.31238108
H      4.17514100     2.20318512     1.38873226
O      1.35188970     2.27619720     0.40244792
H      0.91349971     1.50658932     0.29667740
H      1.41485987     2.38293037     1.35685629
O      2.77279164     4.69209716    -0.00348949
H      1.75234008     4.71025193    -0.01652371
H      2.93979982     4.71957253     0.89420381
O     -0.01867257     4.66446589     0.00309231
H      0.47110270     3.90050777     0.12080541
H     -0.16799855     5.06882950     0.90251898
18
water clusters train frame=1127
O      2.43905629     2.37279788     2.32100971
H      1.76673242     1.75294003     2.64085974
H      3.12473109     2.00210652     2.58728805
O      2.38555369    -2.34396915    -2.32659389
H      1.71339360    -1.62833220    -2.81973738
H      3.21289666    -1.85543219    -2.61527259
O     -2.38599705     2.30252294    -2.33318443
H     -2.13351841     2.03796912    -1.48685847
H     -1.49544886     2.51407757    -2.95770864
O     -2.42779255    -2.29525483     2.35199896
H     -1.91765344    -2.07649128     1.48413178
H     -1.64758502    -2.57085136     2.85307630
O      0.01211594     0.08489905     3.71100433
H      0.63806027     0.75195818     3.38874246
H      0.62990918    -0.64346981     4.16442967
O      0.07018657     0.09509009    -3.72989804
H      0.68857202    -0.61346215    -3.35066486
H      0.57338814     0.65580208    -4.10173853
18
water clusters train frame=1128
O      2.84546755    -0.06898533     0.20734454
H      2.22793444     0.90137038     0.09643176
H      3.00495555    -0.17481885     1.06771916
O      1.45463436     2.29502540    -0.12380439
H      0.55747956     2.34918873    -0.10910566
H      1.51874059     2.38106641    -1.18907304
O     -1.27869846     2.44727792     0.24389075
H     -1.92902925     1.58383946     0.19048681
H     -1.20534604     2.61208132     1.20695796
O     -2.65291027     0.10198086    -0.05206521
H     -2.19875032    -0.83594582    -0.00102091
H     -2.83953831     0.17574724    -1.07005227
O     -1.48477782    -2.26134185     0.08819495
H     -0.32999974    -2.25458531     0.08257510
H     -1.57701749    -2.32400291     1.01174822
O      1.43722844    -2.36960274    -0.17358094
H      1.79095520    -1.49910057    -0.16291253
H      1.37638706    -2.53802181    -1.06122454
18
water clusters train frame=1129
O      1.57325100     0.06699646    -0.01234577
H      0.74625171     0.54072404     0.07276502
H      1.75784756    -0.12395970     0.96704789
O     -0.81376562     1.36690093    -0.07120178
H     -0.82505525     1.38936745     0.98517146
H      0.15544467     1.44435022    -0.29728797
O     -0.80246388    -1.39253021    -0.02478833
H      0.12231021    -0.87229319    -0.00355731
H     -0.95213654    -1.53248091     0.91790587
O      1.56491777     0.02987799     2.68307361
H      1.65096399     0.00837557     1.79936414
H      2.58397987    -0.03831713     2.87703839
O     -0.74600405     1.34570107     2.66209312
H     -0.83999184     0.36291594     2.71356506
H     -0.76209703     1.61737128     1.79314740
O     -0.81406850    -1.34032747     2.68614755
H     -0.76918678    -1.41749114     1.67294853
H      0.17294212    -1.33606794     2.95793441
18
water clusters train frame=1130
O     -0.07811834    -0.10389448    -0.03746858
H      1.00222394    -0.05325168    -0.05544420
H     -0.26227233    -0.07754347     0.95238873
O      2.80037101     0.02872668     0.02396907
H      3.23620601     0.74231224     0.22854338
H      2.42229529    -0.27631837     0.96028205
O      4.14715472     2.27773494     0.36689498
H      3.66225070     3.12619481     0.25606274
H      4.19553811     2.35874565     1.40770476
O      1.33711188     2.37499035     0.43092704
H      0.81474230     1.46691737     0.28360112
H      1.50742060     2.45465879     1.25444267
O      2.71011394     4.68535510     0.01472757
H      1.80928444     4.68835707    -0.08544705
H      2.94097528     4.61960749     0.98289292
O     -0.10008164     4.72570794     0.11040904
H      0.54848609     3.79567414     0.19941951
H     -0.10637682     5.06305166     0.85769771
18
water clusters train frame=1131
O      2.35900436     2.38311149     2.45907929
H      1.77588040     1.79616852     2.79656897
H      3.30520053     2.09889734     2.38947530
O      2.30722815    -2.21843673    -2.43131339
H      1.76430824    -1.63152887    -2.83382183
H      3.15775518    -2.06294926    -2.44903838
O     -2.21311210     2.31548537    -2.35570977
H     -2.06760465     2.03308627    -1.45285726
H     -1.61199761     2.60234889    -2.88491128
O     -2.38160341    -2.30179554     2.47449502
H     -1.99060631    -2.02981719     1.47986026
H     -1.49805648    -2.58757448     2.82780798
O     -0.00678979     0.04880489     3.74625013
H      0.72971696     0.62598931     3.47059241
H      0.53118402    -0.70258449     4.01744903
O     -0.05083056    -0.06677374    -3.60442558
H      0.64646790    -0.70279414    -3.37436788
H      0.50547113     0.61620075    -4.23613083
18
water clusters train frame=1132
O      2.79781929     0.07840566     0.16572737
H      2.19977284     0.85338081     0.06436405
H      2.86353645    -0.20709450     1.04634246
O      1.38656859     2.35308768    -0.18476775
H      0.43056368     2.39909589    -0.10015705
H      1.67602339     2.37661699    -1.10128974
O     -1.38209556     2.34538903     0.14728595
H     -1.80256321     1.45433174     0.04226525
H     -1.26791906     2.57278637     1.11366752
O     -2.77013133    -0.00076514    -0.10875293
H     -2.22268374    -0.80451241    -0.11116933
H     -2.89074555     0.20735031    -1.09310895
O     -1.32527916    -2.40001575     0.16292783
H     -0.46423728    -2.45650670     0.06840602
H     -1.51714765    -2.30037022     1.08470419
O      1.32566376    -2.36749618    -0.20040802
H      1.86531488    -1.59381506    -0.10892163
H      1.24023058    -2.54649206    -1.06716556
18
water clusters train frame=1133
O      1.58223086    -0.03101581     0.11802155
H      0.76826559     0.43506257     0.05685206
H      1.86305627    -0.22172457     0.98095036
O     -0.76746940     1.40183202     0.00773353
H     -0.75969492     1.42364527     0.93223075
H      0.11160072     1.29363837    -0.31129111
O     -0.71507683    -1.36674114     0.04098574
H      0.02381270    -0.85246498    -0.02167679
H     -1.03566090    -1.55173917     0.88588827
O      1.51203152    -0.05192836     2.75163929
H      1.66459420    -0.10453037     1.74628517
H      2.65566864     0.05174891     2.79693209
O     -0.78317072     1.43041324     2.71267352
H     -0.73559433     0.40661117     2.74921364
H     -0.72575089     1.62758437     1.82311613
O     -0.81526454    -1.39689547     2.80818256
H     -0.73093364    -1.38840468     1.75599261
H      0.21052148    -1.44741791     2.89883982
18
water clusters train frame=1134
O      0.07875154    -0.05134330     0.00087769
H      0.90809022     0.06754210     0.04560954
H     -0.32251770    -0.03304572     0.92133071
O      2.84712732    -0.09097908    -0.08308258
H      3.30428992     0.99311079     0.11402009
H      2.46885098    -0.28042593     0.91817261
O      4.13287254     2.48343804     0.26085181
H      3.67172089     3.12260500     0.17722032
H      4.18167506     2.41036186     1.38813714
O      1.38638656     2.36000810     0.22489015
H      0.78853153     1.48703918     0.21414896
H      1.43734307     2.24814718     1.40657843
O      2.77680457     4.60371269     0.09465459
H      1.73747050     4.57717651     0.02569600
H      3.09428292     4.63464543     0.86622824
O     -0.03467126     4.91561905     0.02152514
H      0.48094424     4.04724744     0.26462995
H     -0.35593064     5.03155415     0.82341530
18
water clusters train frame=1135
O      2.33181334     2.40454025     2.34891278
H      1.70340343     1.70537586     2.73407885
H      3.22495071     1.93661956     2.56781140
O      2.36541934    -2.35773256    -2.33516069
H      1.70417501    -1.66175994    -2.73078799
H      3.18428252    -1.99390021    -2.53238067
O     -2.42933196     2.39951667    -2.33392608
H     -2.07331130     2.03775541    -1.54432993
H     -1.58758074     2.60084771    -2.85123533
O     -2.28906633    -2.33578072     2.35267888
H     -1.97508119    -1.96050033     1.58555925
H     -1.57635572    -2.51755710     2.87526357
O      0.00631140     0.02479391     3.73444388
H      0.55752945     0.64021614     3.27602862
H      0.44996957    -0.70061012     4.13513615
O      0.02023469    -0.01415723    -3.70970659
H      0.58721324    -0.60832853    -3.34090111
H      0.52568366     0.67592491    -4.13616280
18
water clusters train frame=1136
O      2.73295589    -0.06902170     0.16198184
H      2.23794402     0.76062756     0.00143198
H      2.76322700    -0.21439556     1.06493707
O      1.29391658     2.40986313    -0.18785380
H      0.45695335     2.44028718    -0.06719683
H      1.57206040     2.42338817    -0.99087307
O     -1.27532402     2.35920161     0.11192521
H     -1.95079280     1.57467437    -0.04592066
H     -1.18371355     2.58707238     1.07263102
O     -2.71122138    -0.06364966    -0.14904351
H     -2.31631768    -0.75975852    -0.10185113
H     -2.79532262     0.13223838    -1.03690701
O     -1.28328231    -2.32638722     0.06433412
H     -0.47927481    -2.40358618     0.12808828
H     -1.53972831    -2.42135229     1.14221763
O      1.40266909    -2.36416150    -0.11932793
H      1.86315790    -1.53799433    -0.10964988
H      1.32729428    -2.74835579    -1.07029540
18
water clusters train frame=1137
O      1.53808988     0.01782070     0.07283140
H      0.72622350     0.48068696    -0.12510615
H      1.91879894    -0.13585123     1.05978335
O     -0.93541014     1.34809518    -0.07465890
H     -0.79961202     1.37789507     0.94212595
H     -0.00375092     1.29417013    -0.21017837
O     -0.88876273    -1.48278796    -0.03189962
H      0.08965878    -0.84174217    -0.01602166
H     -1.05434861    -1.44968140     0.91945069
O      1.51000541     0.03133841     2.71591600
H      1.64531263    -0.06145383     1.69377305
H      2.57311389     0.02996067     2.99279728
O     -0.68704248     1.46819803     2.72861412
H     -0.77487342     0.42626272     2.67229790
H     -0.84191477     1.62645129     1.82920466
O     -0.82708731    -1.34119756     2.81485452
H     -0.90765182    -1.25482831     1.87712228
H      0.10519984    -1.40589286     2.95461901
18
water clusters train frame=1138
O      0.01522442     0.06199327    -0.02093118
H      0.95497790     0.05910310     0.04262528
H     -0.29477546     0.00838969     0.92000848
O      2.75825306     0.01170052     0.00285616
H      3.21793126     0.79254172     0.07491287
H      2.47032504    -0.37079743     0.91865496
O      4.13913395     2.30733938     0.37470907
H      3.62203265     3.15952650     0.24633837
H      4.19354777     2.22087113     1.34293169
O      1.37026049     2.34861962     0.44031484
H      0.93128595     1.52455449     0.27357289
H      1.39519131     2.47968875     1.41669531
O      2.74283642     4.67650137     0.02076500
H      1.77718277     4.66255359     0.00148560
H      3.00297904     4.73295689     0.92116382
O     -0.00469108     4.65049225    -0.09060177
H      0.51158496     3.87822228     0.19567618
H     -0.12131188     5.06476019     0.87460396
18
water clusters train frame=1139
O      2.39199553     2.33016767     2.42772450
H      1.67807695     1.66151860     2.69603464
H      3.14311272     1.99720543     2.48248518
O      2.40364466    -2.40187819    -2.41243846
H      1.71017743    -1.66367758    -2.75284073
H      3.32093750    -1.99573345    -2.60928634
O     -2.22255954     2.39865190    -2.37516536
H     -1.91996007     1.98010265    -1.47886134
H     -1.59089848     2.52307911    -2.77776712
O     -2.35482300    -2.28822844     2.35115298
H     -2.06028675    -2.03520496     1.46221480
H     -1.55915902    -2.57107261     2.89309734
O      0.01721892    -0.01368227     3.77983059
H      0.48444791     0.55917089     3.38258187
H      0.50703292    -0.59591026     4.19255210
O      0.07100828    -0.05518212    -3.77022825
H      0.64404273    -0.76711443    -3.32500931
H      0.56648098     0.74268319    -4.17544327
18
water clusters train frame=1140
O      2.69000816     0.07733507     0.20267932
H      2.30822350     0.84545481    -0.02527790
H      2.81736162    -0.08206024     1.09935067
O      1.37912361     2.33155658    -0.11252816
H      0.48302884     2.40543276     0.03219714
H      1.66191307     2.33451653    -1.19810159
O     -1.44731641     2.38195276     0.09554869
H     -1.77025214     1.58617766     0.20910731
H     -1.31396959     2.58253445     1.12314291
O     -2.77097142    -0.13208382    -0.12555213
H     -2.29857602    -0.79760008     0.02941660
H     -2.80374969     0.05256273    -0.97025484
O     -1.47792894    -2.37676222     0.17386069
H     -0.34701724    -2.42337968     0.03719605
H     -1.54084818    -2.40818997     1.02081288
O      1.41148791    -2.44121366    -0.15303777
H      1.84468661    -1.58082097    -0.14070608
H      1.33525369    -2.53693040    -1.23073262
18
water clusters train frame=1141
O      1.57059002     0.02894928     0.05494627
H      0.71446248     0.42737465     0.04898948
H      1.78584806    -0.13104734     0.99661925
O     -0.84889129     1.41229682     0.05130632
H     -0.82623444     1.36843211     0.95101938
H      0.14121193     1.32837149    -0.22605524
O     -0.82878340    -1.31415909     0.03167910
H      0.05049728    -0.88958656     0.06843171
H     -0.96850878    -1.47906108     0.88235810
O      1.56463852     0.02001375     2.62217152
H      1.50002452     0.02642216     1.78735880
H      2.50864248     0.00306771     2.88862573
O     -0.84847277     1.27340386     2.73518604
H     -0.80121726     0.36850660     2.75844866
H     -0.76769216     1.65708695     1.74424692
O     -0.77704269    -1.35061735     2.77236244
H     -0.85736152    -1.41555540     1.83675295
H      0.12571425    -1.33971190     2.84731515
18
water clusters train frame=1142
O      0.02373952     0.02720251     0.09045074
H      0.92003352     0.02100547    -0.02863542
H     -0.14421926     0.04959843     0.96403287
O      2.65200488    -0.02795063    -0.00152793
H      3.23394400     0.85547386     0.03416222
H      2.56440392    -0.26229166     0.87984423
O      4.14718640     2.29036609     0.33544795
H      3.64747452     3.13382103     0.19919141
H      4.15958301     2.18990617     1.33376394
O      1.34885280     2.38846284     0.39508745
H      0.95297096     1.58399744     0.42154568
H      1.41712040     2.31742153     1.42435747
O      2.76751335     4.73627565    -0.01204711
H      1.86113676     4.70167795     0.03512781
H      3.00591575     4.69147494     0.85697688
O      0.09350517     4.69036659     0.10141728
H      0.53230762     3.98316946     0.22057228
H     -0.24683478     5.00911155     0.93468753
18
water clusters train frame=1143
O      2.29222525     2.40454577     2.29893742
H      1.78910637     1.76677707     2.72668188
H      3.33715621     2.07571791     2.51617208
O      2.37969975    -2.32836300    -2.53391801
H      1.78305335    -1.79838053    -2.72082282
H      3.21026696    -2.00055539    -2.65953425
O     -2.37733850     2.38153593    -2.45333007
H     -2.09291835     2.00217529    -1.34572154
H     -1.48668504     2.46530627    -2.80452501
O     -2.44675168    -2.31677668     2.44976123
H     -1.90990627    -2.05168157     1.44002631
H     -1.50546346    -2.52600339     2.94450438
O     -0.07445408     0.05868349     3.76913182
H      0.55946611     0.70143531     3.44227325
H      0.60969080    -0.66556660     4.20865132
O     -0.08656331    -0.01543152    -3.85349605
H      0.50747304    -0.51333792    -3.48994771
H      0.54169037     0.78170041    -4.10914494
18
water clusters train frame=1144
O      2.67851467     0.01035054     0.20682220
H      2.31434660     0.83173748     0.08228389
H      2.88101500    -0.13515131     1.03276129
O      1.31469007     2.44103540    -0.16920973
H      0.45327206     2.39982366    -0.05283510
H      1.57212691     2.43209029    -1.11105968
O     -1.30966517     2.35693339     0.14339565
H     -1.80018465     1.59169762     0.11139239
H     -1.24585818     2.57566061     1.02095231
O     -2.76754724    -0.01907206    -0.20627430
H     -2.21302234    -0.79986514    -0.11834381
H     -2.82526745     0.18734938    -0.99239456
O     -1.35414731    -2.38215383     0.07699790
H     -0.46688986    -2.35205274     0.18293208
H     -1.57400955    -2.36915278     1.14619228
O      1.34224757    -2.36454329    -0.10987171
H      1.90161946    -1.58441049    -0.11019704
H      1.29657790    -2.53478767    -1.09697362
18
water clusters train frame=1145
O      1.52295346     0.07008225     0.07312446
H      0.73715196     0.41793462    -0.00846911
H      1.81731079    -0.03053705     0.95795583
O     -0.76074844     1.29141553    -0.00397401
H     -0.83071781     1.35314912     0.99523913
H      0.14109666     1.37432193    -0.18410696
O     -0.77564964    -1.41363214    -0.00544323
H      0.01779053    -0.85502586    -0.02696502
H     -0.91607363    -1.44360562     0.84927220
O      1.67963397    -0.02411335     2.73928240
H      1.56662235     0.00942021     1.78693788
H      2.40563178    -0.04165100     3.01680382
O     -0.65899611     1.39560148     2.68620952
H     -0.88262232     0.40967726     2.67014402
H     -0.65420132     1.64550996     1.74450651
O     -0.75194064    -1.42710583     2.70237732
H     -0.68260407    -1.28720702     1.79808588
H      0.09255636    -1.38823103     2.90412338
18
water clusters train frame=1146
O     -0.03878789     0.08560830     0.04217812
H      0.95080766     0.01787186    -0.03975972
H     -0.31451119    -0.08106370     0.94507004
O      2.73596669    -0.06478208    -0.06758111
H      3.14214968     0.92738335     0.11360344
H      2.61942552    -0.44258339     1.06425692
O      4.04040227     2.34748765     0.29920271
H      3.71849292     3.07232999     0.28147084
H      4.10929887     2.34674304     1.30737258
O      1.43823463     2.32394240     0.49525204
H      0.85360047     1.46355599     0.29291866
H      1.39478942     2.53452496     1.35770978
O      2.83630325     4.67385748    -0.00149236
H      1.92823832     4.71156769     0.06778121
H      3.03470345     4.63982718     0.96518529
O     -0.06315222     4.74801635    -0.03171304
H      0.53651359     3.76118174     0.15373990
H     -0.36336288     4.77433136     0.85961132
18
water clusters train frame=1147
O      2.36677212     2.33956495     2.38108823
H      1.66961390     1.74388459     2.74232814
H      3.19513549     1.93876831     2.53460893
O      2.36902638    -2.25465132    -2.32349701
H      1.69881863    -1.82821863    -2.69932548
H      3.17059413    -1.93509004    -2.50319805
O     -2.36645194     2.36892008    -2.37088446
H     -2.04920586     2.02586901    -1.55932353
H     -1.56063946     2.51134926    -2.87738520
O     -2.37916070    -2.37942941     2.35810255
H     -2.04490965    -1.99350871     1.43070230
H     -1.57727179    -2.52745559     2.78189419
O     -0.02168572     0.00417007     3.68704482
H      0.64703325     0.64640296     3.38375441
H      0.52209831    -0.63925680     4.19422663
O      0.00820935     0.09315941    -3.78014325
H      0.57575277    -0.67332909    -3.36568032
H      0.49696730     0.69984897    -4.20448079
18
water clusters train frame=1148
O      2.77748344     0.00513669     0.12477371
H      2.29996775     0.76854505     0.18843191
H      2.96472931    -0.25032053     1.09277199
O      1.37394338     2.24712698    -0.13476094
H      0.37918596     2.44429421    -0.06006043
H      1.62319441     2.28811750    -1.08205487
O     -1.38820493     2.36767431     0.18058473
H     -1.81566070     1.53137900     0.03897899
H     -1.36259618     2.45595049     1.09966529
O     -2.82996412     0.00334048    -0.01347275
H     -2.27291607    -0.82935019    -0.07238794
H     -2.78309198     0.19905911    -1.08490991
O     -1.41547970    -2.41129918     0.19956010
H     -0.32106295    -2.36263114     0.01879142
H     -1.61357996    -2.28371854     1.11292944
O      1.27634089    -2.35367707    -0.07486964
H      1.82866359    -1.58070853    -0.12730098
H      1.31938514    -2.57249379    -1.12042906
18
water clusters train frame=1149
O      1.60630974     0.03615118    -0.04409846
H      0.74129752     0.54844383     0.03807838
H      1.89031983     0.07002010     0.92355746
O     -0.78160343     1.38440262    -0.07645186
H     -0.68922966     1.45295263     1.12065711
H      0.13941558     1.36087438    -0.17998145
O     -0.78919457    -1.31390998    -0.04553756
H      0.03190642    -1.00462289     0.07561007
H     -1.13732832    -1.53056665     0.80245254
O      1.59880676    -0.08278452     2.62645480
H      1.66169516     0.02675375     1.79340372
H      2.43144056    -0.14058692     3.03410396
O     -0.82096862     1.42402180     2.63559396
H     -0.69849303     0.41827687     2.62829915
H     -0.61520937     1.61329600     1.91162875
O     -0.86919846    -1.47680145     2.66726600
H     -0.69563114    -1.26966231     1.86352410
H      0.18346032    -1.34740330     2.89018284
18
water clusters train frame=1150
O     -0.00028694    -0.02235918    -0.06026242
H      0.92375526    -0.04684458     0.02391670
H     -0.22250358    -0.00421762     0.87168209
O      2.72004047     0.00435174     0.01474331
H      3.19702011     0.86022374     0.08828075
H      2.56569449    -0.31417425     0.91332646
O      4.12355852     2.35778732     0.40135134
H      3.68635981     3.20387481     0.22370687
H      4.18085506     2.22897521     1.37902453
O      1.36691603     2.35819602     0.39246839
H      0.93685474     1.43248026     0.22028436
H      1.37262651     2.52145563     1.43656585
O      2.69545164     4.64376975     0.02301889
H      1.78137306     4.66704097     0.00468675
H      3.03646062     4.72785503     0.95894200
O     -0.03089669     4.61386499    -0.05868374
H      0.47337722     3.84661517     0.19032843
H     -0.20209787     5.00967141     0.86195272
18
water clusters train frame=1151
O      2.34177242     2.35026918     2.37578672
H      1.77860654     1.66736891     2.72132722
H      3.17382230     1.96995145     2.58106326
O      2.35029109    -2.35668283    -2.29321604
H      1.63077692    -1.62817282    -2.67987436
H      3.29506818    -1.99601652    -2.53834639
O     -2.39577646     2.30681099    -2.34466608
H     -2.07271048     1.97384633    -1.42262546
H     -1.62566220     2.47063972    -2.80695894
O     -2.30645009    -2.21228222     2.29225888
H     -1.91304283    -1.97235577     1.50051245
H     -1.67976429    -2.48487341     2.84232500
O     -0.03379093    -0.00521864     3.82754154
H      0.59301028     0.61030282     3.38279435
H      0.49717518    -0.67594736     4.09714568
O     -0.00570672    -0.03109095    -3.76010155
H      0.58566651    -0.57800810    -3.37480627
H      0.56856411     0.77224974    -4.22594757
18
water clusters train frame=1152
O      2.79693635     0.00180603     0.03439980
H      2.31346258     0.71820896     0.03842374
H      2.88455218    -0.16178680     1.12390383
O      1.35716301     2.33784480    -0.15598609
H      0.38857261     2.35683480     0.06134679
H      1.55186135     2.34948051    -1.07263407
O     -1.33289188     2.39255030     0.22569473
H     -1.86545675     1.61203269     0.22918493
H     -1.26873549     2.49085090     1.16543903
O     -2.80045030    -0.13609724    -0.28014513
H     -2.17290916    -0.82821133    -0.03452940
H     -2.80043524     0.06275560    -1.21246343
O     -1.39892719    -2.28598215     0.24643343
H     -0.40439254    -2.28244787     0.12622979
H     -1.61943441    -2.30341718     1.09807651
O      1.58250684    -2.36204915    -0.18009301
H      1.98062303    -1.43679252    -0.07516466
H      1.19673420    -2.48513436    -1.30242914
18
water clusters train frame=1153
O      1.59426846     0.03485390     0.07796108
H      0.82823340     0.50986896     0.03631469
H      1.78849375    -0.12175916     1.00953286
O     -0.77313330     1.45170865    -0.02689013
H     -0.84798842     1.38389700     0.95479929
H      0.13156878     1.43764647    -0.19672288
O     -0.82226465    -1.40649095     0.02206907
H      0.00891824    -0.92334083     0.01697343
H     -1.03616556    -1.47452075     0.91719059
O      1.60103217     0.09078570     2.70946359
H      1.58306180    -0.01136613     1.73416808
H      2.50867046     0.03046147     2.90056442
O     -0.85057102     1.36783826     2.69369131
H     -0.73345354     0.45017563     2.69914838
H     -0.80013726     1.55031676     1.76157099
O     -0.76536523    -1.37081185     2.69664400
H     -0.80498728    -1.37369383     1.75672729
H      0.15291919    -1.39949158     2.99800322
18
water clusters train frame=1154
O     -0.00015906    -0.08798770    -0.00416665
H      1.01634336    -0.07072036     0.01821030
H     -0.27492582    -0.06364067     0.98079672
O      2.84471626    -0.00922810    -0.02253680
H      3.24089488     0.85162384     0.11726049
H      2.56185787    -0.20414188     0.81715932
O      4.12089869     2.38207428     0.37649826
H      3.48086306     3.24848658     0.32867065
H      4.06924347     2.32242932     1.47983901
O      1.37250443     2.35762378     0.46299994
H      0.80259688     1.51984288     0.29175963
H      1.45771538     2.51912093     1.37004622
O      2.64258510     4.66097580     0.03813687
H      1.74064358     4.57586201    -0.03823188
H      2.91629529     4.71342978     0.82926424
O      0.00008548     4.68467207    -0.03541747
H      0.48226565     3.86884139     0.07219486
H     -0.15489658     5.13200206     0.94729584
18
water clusters train frame=1155
O      2.38258073     2.30998658     2.38840478
H      1.67291792     1.66067180     2.69371007
H      3.20425213     1.99146289     2.54468159
O      2.17792851    -2.33499468    -2.26764602
H      1.93082601    -1.72399408    -2.77289786
H      3.26693911    -1.99441520    -2.43619543
O     -2.40813400     2.35617775    -2.43343112
H     -1.97322873     2.00860461    -1.53527339
H     -1.48392934     2.57034199    -2.80099861
O     -2.38302767    -2.34741859     2.28787090
H     -2.10098319    -2.02747341     1.49806304
H     -1.51478982    -2.47138875     2.71639891
O     -0.15496197     0.04845049     3.67796170
H      0.78102936     0.71737552     3.45307206
H      0.50664802    -0.55382627     4.23633161
O      0.01954375     0.22455542    -3.72226930
H      0.61159699    -0.57717750    -3.24944444
H      0.59359304     0.72846126    -4.20614725
18
water clusters train frame=1156
O      2.76496071     0.04404914     0.22964374
H      2.30980514     0.87518194     0.08383725
H      2.80739503    -0.13305613     1.13111211
O      1.36625643     2.36486899    -0.17098988
H      0.46620791     2.40225625    -0.08633893
H      1.58711717     2.44988308    -1.11347791
O     -1.43318914     2.42149846     0.13684489
H     -1.81688535     1.57031705     0.06269092
H     -1.28211507     2.54060409     1.05712297
O     -2.72856775     0.00897505    -0.13656366
H     -2.22135845    -0.81384595    -0.15285453
H     -2.87774924     0.18504408    -1.07948014
O     -1.37223199    -2.38021114     0.12790449
H     -0.42648802    -2.35000117     0.11853071
H     -1.49635993    -2.43664030     1.10951098
O      1.30767385    -2.43011979    -0.07098360
H      1.90085162    -1.58202178    -0.13682272
H      1.27288616    -2.51823639    -1.05865999
18
water clusters train frame=1157
O      1.63618216    -0.03755087     0.02678592
H      0.65522012     0.44623865     0.06723735
H      1.85452407    -0.29623759     0.89121944
O     -0.74203949     1.46491872    -0.03889344
H     -0.86818112     1.49034998     0.90409818
H      0.11974207     1.34145139    -0.20444039
O     -0.76907232    -1.35893109    -0.06738341
H      0.05618929    -0.94497444    -0.03748540
H     -1.05158562    -1.48147693     1.04417487
O      1.63198685     0.01414192     2.65729711
H      1.56320201     0.00370381     1.72994169
H      2.51787599     0.01882635     2.86036168
O     -0.80017329     1.43872510     2.78253234
H     -0.83544131     0.38622486     2.77622249
H     -0.80542272     1.63212887     1.71483360
O     -0.82905895    -1.27315600     2.64389963
H     -0.81567731    -1.31604254     1.76189401
H      0.15071264    -1.42497675     2.92055991
18
water clusters train frame=1158
O      0.01114323    -0.10114373     0.11923640
H      0.88266903     0.08000475    -0.04958088
H     -0.43753395     0.10958983     0.97317555
O      2.77011060    -0.08355428     0.15288855
H      3.26797082     0.82499176     0.17237372
H      2.48144658    -0.23965691     1.04254199
O      4.03802536     2.42799239     0.43714608
H      3.48175419     3.09688345     0.29424507
H      4.12517649     2.28496772     1.35252896
O      1.25064155     2.45377159     0.34258988
H      0.89744149     1.53633807     0.14597215
H      1.51589132     2.43914295     1.41436598
O      2.74223898     4.70777666    -0.11784648
H      1.68866137     4.70410638     0.00418564
H      2.89168374     4.75121164     1.03903054
O      0.02545856     4.71132984    -0.00807473
H      0.44068009     3.84563495     0.08004753
H     -0.16899461     4.98726257     0.86414829
18
water clusters train frame=1159
O      2.34138869     2.39294601     2.33230762
H      1.72630998     1.71759581     2.78765650
H      3.23078190     1.97916502     2.60303433
O      2.33102772    -2.34353207    -2.34306089
H      1.75137774    -1.67642878    -2.69998493
H      3.20133960    -1.98251710    -2.58553282
O     -2.41461596     2.30266299    -2.40673058
H     -2.04089204     1.95212559    -1.50634888
H     -1.57463335     2.59456273    -2.83996634
O     -2.33494961    -2.32918241     2.35817741
H     -2.07018507    -2.07842735     1.50035451
H     -1.64376372    -2.52083585     2.83205564
O     -0.00332053     0.04712784     3.69600722
H      0.61720345     0.64422995     3.35619958
H      0.48524898    -0.71492602     4.15293204
O     -0.01661654     0.00056390    -3.73293089
H      0.67277670    -0.61895598    -3.37169024
H      0.51671723     0.74752718    -4.16727279
18
water clusters train frame=1160
O      2.76529331    -0.00070916     0.18728795
H      2.24929112     0.80982531     0.20951028
H      2.93120053    -0.24769867     1.09364759
O      1.22197658     2.31850587    -0.19712357
H      0.36648599     2.34533858    -0.14437948
H      1.52882556     2.43875404    -1.07553848
O     -1.33988570     2.44934584     0.16189651
H     -1.92705242     1.51547732     0.05306721
H     -1.29799737     2.42456638     1.07014436
O     -2.66930259    -0.10608931    -0.12110569
H     -2.37084015    -0.83421571    -0.02219130
H     -2.90666771     0.15807713    -1.12942430
O     -1.41564326    -2.46153015     0.11137050
H     -0.35501843    -2.34846157     0.06994295
H     -1.52532125    -2.46412131     1.13013924
O      1.44618300    -2.38016956    -0.22306213
H      1.77642158    -1.49450607    -0.22367405
H      1.29588576    -2.61173349    -0.98321010
18
water clusters train frame=1161
O      1.67199332     0.10621846     0.06495309
H      0.84944791     0.35938115     0.14122364
H      1.59409945    -0.13607969     1.00098908
O     -0.78468516     1.35668309     0.08420868
H     -0.68908259     1.44984834     0.92606474
H      0.29582624     1.44430575    -0.23841411
O     -0.87963981    -1.30076807    -0.01557093
H     -0.01975494    -0.83613383    -0.11220867
H     -0.91599654    -1.51644645     0.96693797
O      1.66681350    -0.07102551     2.72397571
H      1.63740279     0.13411740     1.82132212
H      2.52967402     0.03179060     2.95221251
O     -0.89196674     1.37537261     2.67064755
H     -0.80443092     0.31285657     2.60624676
H     -0.67708018     1.66935611     1.71670593
O     -0.86428610    -1.43282825     2.67053744
H     -0.74645811    -1.32988876     1.75764203
H      0.05415105    -1.38373591     3.00588167
18
water clusters train frame=1162
O      0.00019670     0.03953319     0.01345426
H      1.01754879    -0.00198856     0.01737263
H     -0.24188022    -0.00196530     0.95713152
O      2.76161018     0.00735610     0.01165286
H      3.19374356     0.75979709     0.09794361
H      2.59006961    -0.29357254     0.89373039
O      4.16712194     2.38226465     0.45197853
H      3.74788921     3.14348028     0.24559152
H      4.18979967     2.25424506     1.40965886
O      1.40886601     2.36135437     0.38714087
H      0.95680221     1.50970460     0.28337672
H      1.44763835     2.43503907     1.31066537
O      2.81111929     4.71090281     0.03090210
H      1.83043779     4.77757507    -0.01094359
H      3.02105574     4.70681328     0.97933835
O     -0.03789066     4.68282817     0.02342745
H      0.45456917     3.92018207     0.14100805
H     -0.13390268     4.99937507     0.91529416
18
water clusters train frame=1163
O      2.34264323     2.25105028     2.28782769
H      1.72315026     1.84041845     2.65014784
H      3.15265908     1.96596716     2.50745116
O      2.34147402    -2.35849720    -2.36794711
H      1.76255422    -1.71537718    -2.63620521
H      3.22223678    -2.01816994    -2.37646184
O     -2.42085007     2.34161291    -2.30777420
H     -1.94256327     2.06779387    -1.49504252
H     -1.63464199     2.61011912    -2.79346519
O     -2.42088805    -2.34816100     2.32345025
H     -1.94003310    -1.98295183     1.46985800
H     -1.46347437    -2.50743746     2.82528760
O      0.05584318    -0.08727787     3.73484993
H      0.67864750     0.67896294     3.33245686
H      0.49191611    -0.69438171     4.16661439
O      0.02738152     0.00022024    -3.80246646
H      0.54625418    -0.57651216    -3.39010581
H      0.62841533     0.63829017    -4.09569748
18
water clusters train frame=1164
O      2.69169373     0.12901298     0.13616053
H      2.32035788     0.79903361     0.02731830
H      2.79899151    -0.10949871     1.07503547
O      1.40722080     2.40455319    -0.01086115
H      0.50440525     2.16772560    -0.07383093
H      1.48982261     2.54414208    -1.18223625
O     -1.27148284     2.38651412     0.22728218
H     -1.69722292     1.48260833     0.15804464
H     -1.32452142     2.60207804     1.05107892
O     -2.81635164    -0.08264940    -0.11876076
H     -2.28962597    -0.86410765    -0.10097446
H     -2.77228704     0.32280959    -0.98997460
O     -1.50017500    -2.46566464     0.11414598
H     -0.47368299    -2.49757729     0.17572510
H     -1.55811374    -2.35288972     1.14479430
O      1.32663399    -2.34368045    -0.27329078
H      1.88350058    -1.60748584    -0.06167593
H      1.39945808    -2.59949224    -0.99116586
18
water clusters train frame=1165
O      1.61623226    -0.01947135     0.04082185
H      0.82313203     0.46842882     0.03002942
H      1.79971094    -0.09315442     0.90008629
O     -0.78166218     1.40237860    -0.04311595
H     -0.82259423     1.34468020     0.90860559
H      0.21746335     1.35124905    -0.30783419
O     -0.78448957    -1.31996627    -0.00327554
H      0.03243372    -0.85038194    -0.00876225
H     -0.97604685    -1.51936652     0.87396106
O      1.64175422     0.03784691     2.68552572
H      1.59634097     0.09071745     1.80399755
H      2.54290842     0.01470029     2.93212273
O     -0.76964389     1.44489807     2.71439296
H     -0.85934843     0.40145801     2.63944644
H     -0.76228378     1.64662211     1.68971089
O     -0.84854749    -1.42276737     2.70708066
H     -0.78397121    -1.34991415     1.74249137
H      0.15108137    -1.35356272     2.96089316
18
water clusters train frame=1166
O     -0.09176219    -0.01977274    -0.07717522
H      0.99363061     0.03197195     0.01171289
H     -0.27394542    -0.00158131     0.94244580
O      2.69903155    -0.07651268    -0.07828343
H      3.19359605     0.78247168     0.17636170
H      2.54088721    -0.23721108     0.81547633
O      4.19119830     2.30841562     0.46656519
H      3.75436731     3.14111977     0.33445558
H      4.13871707     2.19791620     1.36889277
O      1.45343526     2.33046544     0.38094090
H      0.90797854     1.45200900     0.25726647
H      1.48583506     2.38635260     1.30229072
O      2.74592152     4.70840187    -0.01663845
H      1.86918738     4.65158834     0.06822785
H      2.97299178     4.59344591     0.89894506
O      0.04093364     4.66757421    -0.04591142
H      0.44900609     3.89102270     0.15714746
H     -0.31482622     5.15222800     0.82783978
18
water clusters train frame=1167
O      2.45849602     2.28240348     2.37560936
H      1.91824452     1.70628240     2.75723075
H      3.22059702     2.00141760     2.71042277
O      2.36905632    -2.33519746    -2.28641384
H      1.84106655    -1.67421849    -2.65307200
H      3.16518887    -2.06445646    -2.49538578
O     -2.37066456     2.41842644    -2.33954266
H     -2.01216232     2.11483578    -1.52339386
H     -1.48577508     2.45373809    -2.81815742
O     -2.32428736    -2.35460663     2.22424209
H     -2.05262373    -1.87101073     1.67981875
H     -1.59150735    -2.51295802     2.81186902
O     -0.00677609     0.08626898     3.83660262
H      0.61567305     0.65281917     3.36006748
H      0.55794557    -0.71269600     4.17009207
O      0.03134542    -0.02597674    -3.66857100
H      0.57656091    -0.63529681    -3.37898084
H      0.43423060     0.62018983    -4.14575142
18
water clusters train frame=1168
O      2.71603700    -0.01542303     0.20247824
H      2.29364088     0.84023247     0.04906239
H      2.83151347    -0.23996073     1.15572307
O      1.39918355     2.41652834    -0.17671868
H      0.44209244     2.36766817    -0.16413729
H      1.53278335     2.44160202    -1.13452271
O     -1.38010815     2.40115041     0.09994347
H     -1.89029715     1.58456340     0.04884814
H     -1.24583579     2.53112117     1.10809276
O     -2.84373058    -0.07374575    -0.13626862
H     -2.23971447    -0.84392831    -0.08398948
H     -2.82493829     0.20630558    -1.13256115
O     -1.40420475    -2.38111222     0.18971770
H     -0.36400043    -2.37890294     0.07754418
H     -1.53438720    -2.41766483     1.14607101
O      1.35894410    -2.38404898    -0.16892182
H      1.89229032    -1.54684552    -0.14617773
H      1.24387725    -2.54983864    -1.15100884
18
water clusters train frame=1169
O      1.53925213    -0.08640784     0.05410379
H      0.77307294     0.61357260    -0.01107571
H      1.82247405    -0.15996781     0.81827190
O     -0.73822286     1.46298181     0.00985544
H     -0.75378282     1.44746495     0.89016673
H      0.10998660     1.40264177    -0.24306680
O     -0.76593075    -1.34812603    -0.04880786
H      0.00850583    -0.89123670     0.08036377
H     -1.00384183    -1.51946459     0.90225121
O      1.67227908    -0.02190389     2.63954765
H      1.60813722    -0.03805055     1.71427017
H      2.52936302    -0.13322962     2.93305217
O     -0.69165345     1.46749469     2.69677320
H     -0.83833740     0.40916367     2.71437951
H     -0.86033228     1.53739851     1.59895191
O     -0.87712099    -1.26260061     2.71593561
H     -0.77851043    -1.23953344     1.69610244
H      0.02763771    -1.42771758     2.90378938
18
water clusters train frame=1170
O     -0.06182303    -0.02153885    -0.10483979
H      0.88516651     0.03251402     0.14033915
H     -0.23283896     0.00265695     0.93573062
O      2.69280352     0.10893953    -0.03134561
H      3.21245772     0.83027114     0.20461531
H      2.52801022    -0.22247818     0.73362197
O      4.10443314     2.44720792     0.55413677
H      3.75917865     3.23071564     0.26729060
H      4.17722100     2.26886017     1.37681914
O      1.30217164     2.39551924     0.32231228
H      0.83682469     1.42149010     0.25801820
H      1.40403262     2.35279371     1.32743078
O      2.75869381     4.70930774    -0.08407027
H      1.90667391     4.61524949     0.04635271
H      3.13701459     4.70648731     0.87720588
O      0.01931293     4.63066160     0.02501758
H      0.39563706     3.93667778    -0.05780589
H     -0.09608741     5.14155851     0.86616693
18
water clusters train frame=1171
O      2.35634956     2.30659676     2.38365748
H      1.77032007     1.75042375     2.76543955
H      3.21807105     1.94742715     2.61915455
O      2.36234514    -2.32945937    -2.38556025
H      1.74526401    -1.69393718    -2.70748321
H      3.24365706    -1.94696569    -2.51300891
O     -2.35940592     2.33838135    -2.38195315
H     -1.99605447     2.07866062    -1.50168466
H     -1.54710813     2.53621475    -2.90518167
O     -2.35600850    -2.45422903     2.36243630
H     -2.03189373    -1.93253751     1.53654850
H     -1.53844553    -2.48731577     2.85660621
O      0.02447436    -0.01925866     3.75261352
H      0.64461641     0.55675033     3.37895670
H      0.58304951    -0.71652715     4.10278989
O     -0.03509665     0.01408041    -3.80900638
H      0.61451942    -0.58219378    -3.38135643
H      0.51128147     0.69343431    -4.20474598
18
water clusters train frame=1172
O      2.69839229    -0.09034127     0.23825462
H      2.34686686     0.85628704     0.04874724
H      2.87583536    -0.09600486     1.12074476
O      1.39304624     2.43401718    -0.14940738
H      0.40204223     2.37838888    -0.13884480
H      1.52600368     2.35578670    -1.02260256
O     -1.36289653     2.34357544     0.24954598
H     -1.92084528     1.47214719     0.10872300
H     -1.21256262     2.50315237     1.15564680
O     -2.85827260     0.06654715    -0.20857400
H     -2.23123288    -0.75487862    -0.06974726
H     -2.85401935     0.15583275    -1.03346294
O     -1.29412173    -2.34950428     0.19286143
H     -0.37208938    -2.39986663     0.09640925
H     -1.66636797    -2.41705875     1.19337568
O      1.32575026    -2.40344123    -0.14019241
H      1.83840098    -1.47354487    -0.05903664
H      1.20294807    -2.52060665    -1.05804987
18
water clusters train frame=1173
O      1.57600959     0.04660033    -0.17556082
H      0.91945273     0.59075667    -0.05901413
H      1.69823618    -0.06883710     0.92325278
O     -0.67752448     1.45414462    -0.02313644
H     -0.82050007     1.37430415     0.93187919
H      0.15933474     1.40356920    -0.14756799
O     -0.70075478    -1.31965671    -0.02144958
H      0.15321755    -0.95946878     0.02830928
H     -1.13654301    -1.52210004     0.78484258
O      1.50171076    -0.01440253     2.73949384
H      1.43777825     0.03305237     1.78661934
H      2.56570307     0.02406325     2.86978310
O     -0.82586805     1.32773337     2.71445543
H     -0.76428046     0.42142736     2.72589991
H     -0.84306772     1.75957822     1.67898126
O     -0.77275728    -1.48662324     2.63640288
H     -0.82064922    -1.47065703     1.75037410
H      0.04675987    -1.36890977     3.11205639
18
water clusters train frame=1174
O     -0.03744365    -0.00297012     0.01619653
H      1.01683128     0.01110611     0.03359047
H     -0.23536273     0.00511920     0.90901033
O      2.75978035     0.00123376    -0.03477055
H      3.25134775     0.81310975     0.24068709
H      2.56614225    -0.38233357     0.85226712
O      4.08556548     2.31921066     0.41960430
H      3.67935638     3.13769940     0.30978859
H      4.28702969     2.26479554     1.42916039
O      1.34129925     2.37165586     0.39702159
H      0.90826242     1.58928694     0.22128032
H      1.42092240     2.40056087     1.38181157
O      2.82174763     4.68039638     0.03318498
H      1.74675237     4.70844899    -0.01473144
H      2.97559980     4.74334825     1.01634579
O     -0.01199702     4.70744196     0.00152982
H      0.53477632     3.90421765     0.17763359
H     -0.17768483     5.01591582     0.91479679
18
water clusters train frame=1175
O      2.36898667     2.32255991     2.29489242
H      1.69627759     1.83720892     2.71199330
H      3.16282492     1.97977454     2.58261208
O      2.22258431    -2.43902744    -2.38426786
H      1.68625645    -1.67337361    -2.74080940
H      3.26108965    -1.93689026    -2.57575565
O     -2.32770373     2.32504902    -2.37472471
H     -2.00438507     2.06907187    -1.45407406
H     -1.48473336     2.53303764    -2.86757697
O     -2.38926111    -2.35113286     2.33665759
H     -1.97750524    -1.97716049     1.48015147
H     -1.59744282    -2.66034304     2.74970559
O      0.03821850    -0.00554797     3.73696185
H      0.63950719     0.65404259     3.33130839
H      0.64746784    -0.60859034     4.19705257
O      0.03817634     0.01048227    -3.72366979
H      0.60402175    -0.57738515    -3.39266109
H      0.62495238     0.64442439    -4.17039042
18
water clusters train frame=1176
O      2.77621637    -0.06315357     0.12821138
H      2.29998557     0.85138057     0.24964628
H      2.73105943    -0.17985350     1.03451268
O      1.32067699     2.43666557    -0.18543394
H      0.43727569     2.36017515    -0.13489132
H      1.48611997     2.39347897    -1.09766458
O     -1.34945163     2.44448304     0.19262619
H     -1.86011528     1.60392907     0.07899331
H     -1.21911133     2.49671932     1.09506632
O     -2.88857239     0.10822279    -0.27414236
H     -2.33435253    -0.72724615    -0.04141919
H     -2.89544720     0.18835195    -1.07615400
O     -1.47509903    -2.29911323     0.24409720
H     -0.41857103    -2.30456803     0.14537558
H     -1.61127875    -2.26975383     1.13775043
O      1.33072535    -2.32773964    -0.22368078
H      1.72424857    -1.54900298    -0.14078441
H      1.20765437    -2.52054155    -1.07133312
18
water clusters train frame=1177
O      1.60708270     0.06035023     0.05495810
H      0.75761262     0.47131473     0.01356826
H      1.85229209    -0.15015161     0.87248353
O     -0.76261140     1.39031196     0.04635547
H     -0.77330503     1.44743867     0.97686591
H      0.14934962     1.44712144    -0.24456582
O     -0.85198868    -1.41027686     0.07001609
H      0.09471228    -0.91557496    -0.01083533
H     -1.00633952    -1.46080270     0.95191124
O      1.56927953     0.04123361     2.73321499
H      1.54505839    -0.05594425     1.76843944
H      2.49506389     0.00903972     2.91453031
O     -0.76327479     1.36789867     2.75119499
H     -0.81059279     0.42880277     2.71719011
H     -0.79916779     1.60013071     1.72130196
O     -0.77312168    -1.34437488     2.70455930
H     -0.83499379    -1.32785878     1.76403355
H      0.11609406    -1.42862859     2.97770225
18
water clusters train frame=1178
O     -0.08381706     0.03503531    -0.07943243
H      0.95495934     0.00143552    -0.04855640
H     -0.17413524    -0.02856484     0.91980099
O      2.77626546     0.11120731     0.05931810
H      3.14333024     0.88704822     0.09434646
H      2.57547690    -0.38547673     0.94697524
O      4.06485053     2.37226855     0.39355629
H      3.71680698     3.18796615     0.15316915
H      4.12067490     2.24169038     1.27737492
O      1.40596569     2.33778655     0.39287226
H      0.87984123     1.44902776     0.30923598
H      1.42170279     2.42576098     1.34266814
O      2.84664321     4.77265950    -0.01207991
H      1.74655958     4.64383370    -0.02961448
H      3.03109395     4.67337586     0.98414476
O      0.01271984     4.73658234    -0.06072324
H      0.53106518     3.85103578     0.09875068
H     -0.19551235     5.05028796     0.98375271
18
water clusters train frame=1179
O      2.28813464     2.33637910     2.44438043
H      1.53962821     1.79459561     2.65309107
H      3.13540244     2.00777765     2.47723716
O      2.41210557    -2.40358115    -2.33143496
H      1.65556719    -1.76146356    -2.74816244
H      3.18840108    -2.07939795    -2.53589708
O     -2.47016316     2.15633024    -2.37288512
H     -1.95839272     1.99077173    -1.51727379
H     -1.55728063     2.58799119    -3.03826824
O     -2.11703557    -2.42046278     2.42221304
H     -2.08534700    -2.08389954     1.59623532
H     -1.47541330    -2.55499474     2.88121183
O      0.14357709    -0.02433335     3.82357690
H      0.62519956     0.57901177     3.39005719
H      0.46064066    -0.66592008     4.22653837
O     -0.04393865     0.07898909    -3.75336712
H      0.52735071    -0.67543057    -3.31864498
H      0.56952001     0.87919707    -4.14787590
18
water clusters train frame=1180
O      2.77505224    -0.02609578     0.15615363
H      2.26895428     0.78664409     0.08895485
H      2.82092208    -0.17881951     1.08046833
O      1.33317520     2.45060721    -0.10233149
H      0.47577998     2.41029000    -0.05938366
H      1.58403358     2.46333831    -1.10080858
O     -1.36368114     2.42298008     0.18209426
H     -1.82630376     1.50964463     0.23519419
H     -1.27621842     2.55910523     1.04251879
O     -2.76404671    -0.05681483    -0.14622807
H     -2.26656178    -0.87177456     0.02104895
H     -2.83859883     0.23249841    -1.11510318
O     -1.35926640    -2.39029584     0.10162442
H     -0.35910988    -2.34352547     0.15475821
H     -1.59058275    -2.33697549     1.04313859
O      1.36145816    -2.40767220    -0.19635971
H      1.84525014    -1.61064586    -0.09150965
H      1.37072495    -2.56953362    -1.13180175
18
water clusters train frame=1181
O      1.61880741    -0.02549491    -0.06237096
H      0.73932347     0.41354813    -0.03793533
H      1.77586681    -0.04853499     0.96305102
O     -0.92676779     1.49376189     0.00386981
H     -0.80770351     1.36389521     0.85643094
H      0.17282709     1.38063425    -0.17624132
O     -0.73510868    -1.47016231    -0.06710895
H      0.06093201    -0.89433647    -0.05392309
H     -1.13446985    -1.51500233     0.95377205
O      1.49359797     0.06733842     2.72928027
H      1.57194012    -0.06720102     1.72452676
H      2.48530516     0.00809747     2.85761479
O     -0.72082241     1.37451879     2.75992984
H     -0.77528456     0.41284082     2.70827624
H     -0.67122125     1.65726962     1.77752906
O     -0.74354897    -1.42332227     2.83387712
H     -0.76454793    -1.40153826     1.75328149
H      0.16199761    -1.37822527     2.89327462
18
water clusters train frame=1182
O      0.06591315     0.04920234    -0.00461486
H      1.01008078     0.03047700     0.04579383
H     -0.30781621    -0.00395660     1.06603895
O      2.78220591    -0.02246795     0.01157137
H      3.23290545     1.07249169     0.16660203
H      2.57318847    -0.35121691     1.04378440
O      4.16012499     2.25178489     0.44818323
H      3.63326065     3.03722667     0.26300109
H      4.32971840     2.27168522     1.38558688
O      1.38248223     2.30125270     0.29612865
H      0.81937567     1.49207142     0.31637981
H      1.44630572     2.53489003     1.35926917
O      2.74286317     4.62055516     0.01215160
H      1.86582770     4.73213831    -0.02511932
H      2.97976745     4.73079702     0.87578891
O     -0.02293431     4.77747726    -0.00820304
H      0.47972622     3.68322384     0.07828444
H     -0.10829574     5.04099107     0.79358696
18
water clusters train frame=1183
O      2.33452927     2.34999804     2.29016981
H      1.80720203     1.71660182     2.73188041
H      3.20766739     2.04277259     2.56739655
O      2.36174796    -2.36499827    -2.31130654
H      1.74639934    -1.76467302    -2.64787956
H      3.13212149    -2.00114544    -2.50403031
O     -2.35232602     2.37048300    -2.33292314
H     -2.09869739     2.00393971    -1.46898198
H     -1.51645293     2.49591550    -2.84933842
O     -2.34991519    -2.35326519     2.30103074
H     -2.02632354    -2.01957649     1.53397818
H     -1.55400361    -2.46668313     2.91276272
O     -0.01168474     0.00019561     3.72390800
H      0.60773022     0.59751546     3.37144719
H      0.60194822    -0.64848894     4.19151872
O      0.07683138     0.00902726    -3.80839815
H      0.66548957    -0.59918099    -3.35002265
H      0.59693785     0.63841629    -4.14967920
18
water clusters train frame=1184
O      2.85156893    -0.12459662     0.11503073
H      2.17237112     0.79604332     0.07977207
H      2.77319312    -0.20132865     1.19573577
O      1.39401831     2.39945983    -0.11155109
H      0.37080663     2.33063720    -0.08204197
H      1.60676346     2.39841419    -1.15404782
O     -1.40221286     2.46912187     0.04295835
H     -1.85132732     1.54800699     0.11908567
H     -1.25389617     2.53346583     1.05616921
O     -2.70249008    -0.02910554    -0.15129806
H     -2.36311839    -0.80307150    -0.02024832
H     -2.84512562     0.14660336    -1.08006389
O     -1.40917398    -2.39640749     0.10172656
H     -0.42804946    -2.39206474     0.23916706
H     -1.54612717    -2.50296123     1.16077169
O      1.41527309    -2.36987664    -0.14987398
H      1.75422614    -1.53600524    -0.12972684
H      1.33777191    -2.56320144    -1.03069727
18
water clusters train frame=1185
O      1.55548061     0.12729361    -0.03843152
H      0.78963989     0.44189213    -0.06991110
H      1.74934832    -0.08059239     0.96493541
O     -0.79048188     1.50340649    -0.01859231
H     -0.83216718     1.42550837     0.77836065
H      0.10523627     1.42439661    -0.31829339
O     -0.71290358    -1.33231529    -0.04935338
H     -0.00241828    -0.89950281     0.01713396
H     -1.02489389    -1.40304518     0.81835165
O      1.62916611     0.06322483     2.71031508
H      1.62661653     0.17372574     1.81669782
H      2.56389034     0.07793455     2.87015208
O     -0.87590440     1.32637660     2.78817725
H     -0.76133882     0.41545823     2.83187834
H     -0.84800927     1.56824048     1.84020591
O     -0.68501011    -1.38339041     2.61999314
H     -0.87238465    -1.32763103     1.71593276
H      0.14561960    -1.34254701     2.93019876
18
water clusters train frame=1186
O      0.00922515     0.03081123     0.03084435
H      0.93412045    -0.01092096     0.00076024
H     -0.25065875    -0.06885967     0.94156109
O      2.74797289     0.00355705     0.02248374
H      3.29082534     0.82384218     0.12333624
H      2.63212766    -0.37070063     0.82050867
O      4.12082830     2.33235052     0.46592175
H      3.64252206     3.21388233     0.21613112
H      4.23579520     2.28219385     1.39845688
O      1.45727897     2.31753566     0.36002635
H      0.92746502     1.59516656     0.23517067
H      1.48579488     2.43987524     1.38711446
O      2.73068513     4.66963209    -0.02888695
H      1.80749101     4.73751574     0.06229939
H      3.00286166     4.64807466     0.90179744
O     -0.07965746     4.71210686    -0.03815361
H      0.54335997     3.89977842     0.12498698
H     -0.25294512     4.96219382     0.86746831
18
water clusters train frame=1187
O      2.33278816     2.48596360     2.34805846
H      1.64359685     1.68632181     2.65616788
H      3.20743092     1.99115705     2.55223606
O      2.35550817    -2.37877912    -2.35354640
H      1.79932850    -1.76676370    -2.71819577
H      3.14372708    -1.97720409    -2.67350256
O     -2.34288494     2.36248629    -2.41363684
H     -1.98423288     2.05381352    -1.58637183
H     -1.53997471     2.54705418    -2.80766820
O     -2.40594577    -2.30812315     2.35262037
H     -2.01085700    -2.08503944     1.53220564
H     -1.61903320    -2.54216727     2.87670670
O      0.11604848    -0.11266607     3.70423433
H      0.58612358     0.61859564     3.43376783
H      0.63321252    -0.78404480     4.15876511
O      0.10447786    -0.02437244    -3.74017102
H      0.63662849    -0.67482546    -3.32858246
H      0.53245812     0.55697635    -4.17463772
18
water clusters train frame=1188
O      2.69736363    -0.07236608     0.01115424
H      2.24669263     0.81434692     0.08279404
H      2.81884173    -0.20742575     1.03042808
O      1.39286649     2.39003406    -0.16811919
H      0.40397196     2.36441574    -0.09990290
H      1.66551713     2.23377063    -1.10633902
O     -1.31723974     2.28222663     0.22348320
H     -1.76555877     1.52091206     0.12833116
H     -1.31925045     2.59731174     1.09514118
O     -2.75642870     0.01207557    -0.19035862
H     -2.39342877    -0.86262698    -0.01607634
H     -2.72706051     0.11669258    -1.12737786
O     -1.34210175    -2.42646329     0.09816687
H     -0.37444219    -2.34100252     0.04173504
H     -1.63867967    -2.29521013     1.05292204
O      1.28390334    -2.43649697    -0.21810914
H      1.89915022    -1.45025679    -0.05675708
H      1.29363318    -2.49440159    -1.10156976
18
water clusters train frame=1189
O      1.58500386    -0.03346810    -0.02306440
H      0.76179813     0.50531388     0.02379794
H      1.77385793    -0.16618003     0.94071557
O     -0.77354605     1.34637927     0.00205967
H     -0.77761368     1.35540963     0.95608346
H      0.13326432     1.41104904    -0.30145356
O     -0.77106473    -1.44168501    -0.02263453
H      0.03887439    -0.96423095     0.02254801
H     -0.97294669    -1.51480760     0.88860992
O      1.57246365     0.00854845     2.63513499
H      1.56457799    -0.01216378     1.70129949
H      2.55641842    -0.00390432     2.87095865
O     -0.82994708     1.38665754     2.76338494
H     -0.84174618     0.44965142     2.69726372
H     -0.78422461     1.57255996     1.75330882
O     -0.88298426    -1.36069246     2.71098503
H     -0.87939847    -1.34193945     1.73626635
H      0.11755783    -1.40414720     2.95178513
18
water clusters train frame=1190
O      0.05053697     0.02640176    -0.01770288
H      0.94242805     0.07385285     0.00887270
H     -0.11979684    -0.03557998     0.94532113
O      2.77840260     0.04448102     0.10842867
H      3.23750004     0.77295990     0.07466030
H      2.47385548    -0.24835482     0.92841357
O      4.12021762     2.31649081     0.34784801
H      3.62950386     3.16745544     0.24698722
H      4.22965777     2.27144953     1.50625958
O      1.46766572     2.26300434     0.41216397
H      0.91484314     1.56480804     0.26296991
H      1.40109437     2.46368752     1.47263168
O      2.67710243     4.71386351     0.12024701
H      1.82955331     4.75464790    -0.05437996
H      3.06846732     4.69802367     0.97917807
O     -0.12906518     4.65700029     0.00547662
H      0.53826770     3.85671324     0.14627651
H     -0.05191758     5.08076757     0.92924149
18
water clusters train frame=1191
O      2.45066098     2.31535377     2.14632226
H      1.61563415     1.70221714     2.74741005
H      3.28606371     2.04969560     2.58223508
O      2.38160191    -2.11222444    -2.26504881
H      1.76080114    -1.84578126    -2.74422129
H      3.11972687    -2.05388441    -2.61723610
O     -2.37793257     2.27434275    -2.34006289
H     -1.93361935     2.00567778    -1.40058771
H     -1.58584153     2.57242203    -2.86237414
O     -2.29265012    -2.24955388     2.36731750
H     -1.89768922    -1.93014443     1.61249493
H     -1.55335779    -2.58767988     2.81196758
O     -0.07791236     0.06630313     3.78415771
H      0.54016237     0.57867091     3.35311962
H      0.59704086    -0.72318642     4.18244626
O     -0.05176969    -0.02676407    -3.82291679
H      0.64365962    -0.55479895    -3.33817001
H      0.52212951     0.66714107    -4.19430701
18
water clusters train frame=1192
O      2.73929381    -0.05170089     0.14083474
H      2.33670881     0.78946880     0.15218658
H      2.79709481    -0.11756121     1.12695028
O      1.39815182     2.38038301    -0.12969640
H      0.45968251     2.38254894    -0.14813529
H      1.53909807     2.35805212    -1.10819573
O     -1.39815737     2.35591396     0.10679141
H     -1.89202219     1.60323305     0.04673848
H     -1.25253300     2.47929577     1.04714846
O     -2.78396410     0.03988144    -0.05383379
H     -2.31616235    -0.83224197    -0.14517704
H     -2.87385703     0.10307364    -1.06878056
O     -1.40105612    -2.39961523     0.17556842
H     -0.41965300    -2.42467768     0.08097560
H     -1.62821491    -2.44841325     1.06205458
O      1.35865606    -2.38853009    -0.17131398
H      1.83635751    -1.61182844    -0.08708961
H      1.25627148    -2.59154779    -1.05958960
18
water clusters train frame=1193
O      1.57754979     0.11076653     0.05565895
H      0.84650541     0.45611044    -0.01017243
H      1.83926330    -0.05902892     0.93688462
O     -0.74985686     1.33285785    -0.13414540
H     -0.71383817     1.35517791     0.95564633
H      0.22065291     1.43481431    -0.16052260
O     -0.81963671    -1.33185953    -0.01344015
H      0.03610308    -0.97923628     0.01696383
H     -0.97233459    -1.38979088     0.96648612
O      1.64232119    -0.06287351     2.60346539
H      1.66373703    -0.05986714     1.72677708
H      2.52525435     0.06975911     2.77647541
O     -0.81803768     1.37071951     2.73414786
H     -0.74527410     0.37701539     2.64518344
H     -0.81869730     1.53073396     1.78463056
O     -0.81893291    -1.41537097     2.68109277
H     -0.72912486    -1.47830267     1.70757744
H      0.20929566    -1.26541493     2.87401149
18
water clusters train frame=1194
O     -0.01613625    -0.12596986     0.00177695
H      0.92787505     0.07031755    -0.05321531
H     -0.09279850    -0.05310098     0.89856653
O      2.68024826    -0.03747273    -0.02795605
H      3.27611860     0.78872464     0.18348378
H      2.45152629    -0.42962230     0.83599171
O      4.28396051     2.36654474     0.59839903
H      3.70097569     3.24114151     0.21668170
H      4.15403815     2.25153168     1.34799714
O      1.45591152     2.37925781     0.43681327
H      0.91263328     1.55498674     0.25987150
H      1.48741934     2.45475036     1.27622153
O      2.60456352     4.66225014     0.11941771
H      1.66717498     4.54692316     0.20267347
H      3.12259648     4.64140742     0.92711753
O     -0.04148352     4.68447610     0.03185306
H      0.41541350     3.81303184     0.25560867
H     -0.26379647     5.10264663     0.82180276
18
water clusters train frame=1195
O      2.35773677     2.39964734     2.29757541
H      1.67499526     1.66055355     2.67273871
H      3.19762126     1.99259702     2.49776265
O      2.37706895    -2.33085725    -2.35558993
H      1.67660842    -1.70449779    -2.70597269
H      3.18351850    -2.01886946    -2.59914544
O     -2.26517087     2.35304269    -2.40600877
H     -1.96623889     2.04241062    -1.52529333
H     -1.55425022     2.55940013    -2.91094899
O     -2.35669714    -2.43154278     2.31402450
H     -2.04128886    -1.97363737     1.58655012
H     -1.51261471    -2.50043194     2.86904232
O      0.04976781    -0.05582890     3.76998335
H      0.64735107     0.60025127     3.43329525
H      0.60732854    -0.65156707     4.14262779
O      0.01282268    -0.07350469    -3.72759445
H      0.54372742    -0.64068909    -3.35947867
H      0.54430214     0.69899806    -4.14632125
18
water clusters train frame=1196
O      2.73173227     0.01117882     0.10685276
H      2.37686473     0.85962835     0.00348694
H      2.90641394    -0.22420990     1.01520584
O      1.26978026     2.31968124    -0.20623148
H      0.43534666     2.38270009    -0.06325916
H      1.45370306     2.45358618    -1.07041982
O     -1.34637417     2.40506836     0.04544050
H     -1.89343772     1.57436923     0.09915081
H     -1.36898914     2.53705320     1.20075388
O     -2.74978852    -0.09052487    -0.18197797
H     -2.21346299    -0.83114091    -0.09379690
H     -2.74745329     0.10730287    -1.11734962
O     -1.46650019    -2.42562242     0.16484945
H     -0.36558999    -2.48104213     0.11890265
H     -1.59346205    -2.48419865     1.15729505
O      1.46904764    -2.36447998    -0.18357616
H      1.85114614    -1.53387691     0.01086088
H      1.33992809    -2.55756973    -1.13310972
18
water clusters train frame=1197
O      1.69084465    -0.04694909     0.10883087
H      0.81089825     0.59415296     0.01140137
H      1.79244469    -0.09008707     0.94327713
O     -0.81184974     1.34106623     0.02962157
H     -0.80930552     1.42962660     1.04466155
H      0.26004593     1.50477214    -0.25070683
O     -0.76853281    -1.40479060    -0.03475614
H      0.04686285    -0.93644454    -0.00206429
H     -1.02986084    -1.52559006     0.74363119
O      1.61510825    -0.07030303     2.71782914
H      1.59891193    -0.15272205     1.86214301
H      2.45128516     0.00601465     2.86400613
O     -0.75004678     1.39069049     2.64906480
H     -0.80571750     0.41217600     2.65704771
H     -0.73626295     1.61467755     1.69682734
O     -0.76606023    -1.50690128     2.64460989
H     -0.73018402    -1.33642290     1.81541926
H      0.29532907    -1.52370965     2.90292143
18
water clusters train frame=1198
O      0.07182401    -0.01584524     0.01040483
H      0.96813172    -0.02618274    -0.02621523
H     -0.26409591    -0.02209039     0.91682145
O      2.77415068     0.00929565    -0.01726627
H      3.18405176     0.79664880     0.13822950
H      2.60669378    -0.34452033     0.89544339
O      4.12855986     2.30248283     0.34047712
H      3.62853777     3.17416492     0.23002661
H      4.17922292     2.26436694     1.34657721
O      1.41579928     2.36310433     0.41501697
H      0.86451638     1.55302357     0.25078123
H      1.51688514     2.46782377     1.35669414
O      2.76205904     4.70936267    -0.05498088
H      1.74838636     4.72621683     0.06804093
H      3.03368398     4.65249785     0.89644730
O      0.03173043     4.71862582    -0.00715354
H      0.48361303     3.86718839     0.11703556
H     -0.18146434     5.00412119     0.94964693
18
water clusters train frame=1199
O      2.32023891     2.30082806     2.30048306
H      1.71085039     1.68570795     2.76345838
H      3.25210870     1.94553782     2.60019672
O      2.25499830    -2.39228821    -2.28718599
H      1.71972848    -1.70981037    -2.68244533
H      3.12836148    -1.94945494    -2.66405734
O     -2.40608140     2.34127490    -2.25430957
H     -1.95086213     2.05995054    -1.60895018
H     -1.53916502     2.53301788    -2.82418932
O     -2.32210953    -2.35012322     2.24092166
H     -1.99183154    -2.05690280     1.57333543
H     -1.60309679    -2.56952784     2.82660820
O      0.01994841    -0.01348068     3.69390140
H      0.65728097     0.54819519     3.34694004
H      0.53056946    -0.68913545     4.17830236
O     -0.05882879     0.02439923    -3.81971254
H      0.60990566    -0.82000537    -3.35666983
H      0.49262419     0.71180999    -4.21565657
18
water clusters train frame=1200
O      2.86019976     0.13914891     0.12620656
H      2.28573784     0.87766059     0.16548426
H      2.91637586    -0.11233848     1.14307134
O      1.34237404     2.48043333    -0.13567309
H      0.36022891     2.38025927    -0.06597914
H      1.55302846     2.50692580    -1.12254338
O     -1.47760281     2.61638697     0.06741697
H     -1.90905703     1.55742840     0.07354430
H     -1.25941447     2.53578284     1.06939608
O     -2.72797522     0.01453981    -0.18209906
H     -2.35681846    -0.92958556    -0.02721966
H     -2.71011548     0.19542519    -0.97899524
O     -1.38867007    -2.50405245     0.17200100
H     -0.38052482    -2.27313822     0.16127864
H     -1.50502640    -2.40372026     1.07128174
O      1.30972907    -2.32724320    -0.19420288
H      1.84673179    -1.70650334    -0.08688419
H      1.15295481    -2.53803379    -1.16038640
18
water clusters train frame=1201
O      1.66300852    -0.04937685     0.01063983
H      0.78846594     0.45609158    -0.02798757
H      1.75324946    -0.09397679     0.94896548
O     -0.79563187     1.30702183    -0.00670542
H     -0.73560582     1.34685237     0.99922286
H      0.20309834     1.40195317    -0.26406171
O     -0.80960615    -1.37547776     0.08516247
H      0.03172840    -0.93270025     0.00955493
H     -0.99529923    -1.52103816     0.96172030
O      1.59489274    -0.07292942     2.70246046
H      1.55433751     0.03620420     1.71996857
H      2.55018767    -0.02851687     2.91626374
O     -0.81615582     1.34308286     2.70755745
H     -0.86669778     0.44149991     2.65427369
H     -0.73529841     1.59400184     1.77463795
O     -0.78639683    -1.38128503     2.71837316
H     -0.80876102    -1.35908068     1.82957305
H      0.11889056    -1.33475816     2.94595310
18
water clusters train frame=1202
O     -0.02722647    -0.01036210     0.07632080
H      0.90542325    -0.01487025     0.00743517
H     -0.15506282    -0.11957331     0.96608027
O      2.71460889     0.04667139     0.11175422
H      3.17671403     0.80522579     0.32944314
H      2.53127799    -0.32230723     0.90709647
O      4.12585032     2.35623207     0.40272275
H      3.72736762     3.20321154     0.24992345
H      4.22004979     2.35795447     1.40928871
O      1.37425878     2.30842516     0.33440996
H      0.89715054     1.57526297     0.26063235
H      1.45449996     2.43881221     1.37091783
O      2.80993682     4.68322817    -0.07480198
H      1.83165771     4.75070462     0.00203544
H      3.04062434     4.78003046     0.87649081
O      0.02948001     4.59496507     0.05050236
H      0.47567383     3.85935051     0.19600633
H     -0.29871659     5.04102837     0.82066871
18
water clusters train frame=1203
O      2.35445656     2.29230244     2.44889256
H      1.79550353     1.77248416     2.73749915
H      3.28556139     1.87548942     2.77464535
O      2.28356831    -2.33484781    -2.44393864
H      1.73428762    -1.67452321    -2.62302626
H      3.15116512    -2.06602153    -2.59054585
O     -2.31219000     2.34169190    -2.33544422
H     -1.91556074     2.03918895    -1.40616640
H     -1.69182998     2.59051310    -2.93300440
O     -2.30948925    -2.30110412     2.26351908
H     -2.02738090    -2.02334711     1.42724795
H     -1.64099082    -2.43716411     2.97090675
O      0.07941202     0.05207875     3.58587286
H      0.68291834     0.72197872     3.35259131
H      0.59767122    -0.58864024     4.14615740
O     -0.07247602     0.02946312    -3.57713539
H      0.77991548    -0.57419543    -3.31832242
H      0.54408096     0.59972119    -4.13627230
18
water clusters train frame=1204
O      2.75458212     0.02761244     0.11214553
H      2.21556909     0.82617945     0.03965009
H      2.86108027    -0.13288869     1.16925319
O      1.36073719     2.36312333    -0.14307221
H      0.45882160     2.36584616    -0.05747268
H      1.58156416     2.34980707    -1.07178160
O     -1.38291326     2.48391059     0.17108771
H     -1.81415014     1.59021996     0.05951303
H     -1.25251847     2.52418158     1.16828082
O     -2.79614422     0.01172139    -0.16890331
H     -2.31849414    -0.83931650    -0.08799468
H     -2.88018939     0.19839080    -1.07594829
O     -1.42268153    -2.35438027     0.12744733
H     -0.47523136    -2.42401044     0.17108660
H     -1.50979213    -2.41495590     1.05556318
O      1.36429784    -2.35170096    -0.05420285
H      1.87203839    -1.56414083    -0.08227756
H      1.28769444    -2.61640015    -1.08814171
18
water clusters train frame=1205
O      1.49384875     0.01708730     0.03326075
H      0.58614523     0.61863650     0.02315746
H      1.80365851    -0.04342748     0.90131011
O     -0.89876445     1.34705883    -0.05084025
H     -0.74183657     1.40157648     0.93725391
H      0.21516331     1.35070614    -0.27603307
O     -0.67030677    -1.39304158     0.03828046
H      0.05527953    -0.92619042     0.05682460
H     -0.98517397    -1.47050513     1.02804704
O      1.61566811     0.01668189     2.69410626
H      1.51711619    -0.02636241     1.79814401
H      2.49630820    -0.09953094     2.81048969
O     -0.78926785     1.29464164     2.84825277
H     -0.78461535     0.45836484     2.62676527
H     -0.75547819     1.63330546     1.77870965
O     -0.80053877    -1.35601064     2.89552202
H     -0.85318066    -1.34541510     1.71386515
H      0.22263584    -1.43225789     2.92922395
18
water clusters train frame=1206
O      0.04294513     0.05600364    -0.13768069
H      1.06139874    -0.06876838    -0.04383674
H     -0.21526767    -0.03066870     0.93451715
O      2.85168989     0.07843400     0.05043263
H      3.28151613     0.88408609    -0.03934817
H      2.64486471    -0.40015204     0.86309464
O      4.07933664     2.32341947     0.51188939
H      3.84976013     3.23510228     0.18846498
H      4.02383673     2.21668907     1.42199751
O      1.33998772     2.33753454     0.53130804
H      1.01611449     1.51877496     0.37378111
H      1.50296401     2.35590466     1.40337844
O      2.65447560     4.53290965    -0.03466723
H      1.72630509     4.79512684     0.05624425
H      2.92815524     4.69311513     0.91658473
O     -0.10168150     4.67489449    -0.00812781
H      0.53017325     3.69214858     0.14368894
H     -0.31062511     4.88776667     0.93417279
18
water clusters train frame=1207
O      2.31780561     2.30326757     2.42711128
H      1.74518896     1.72555901     2.69255083
H      3.07892579     1.96139398     2.54465600
O      2.32442332    -2.32121562    -2.27669268
H      1.70718293    -1.71516481    -2.74816468
H      3.20665390    -1.98478114    -2.60565960
O     -2.45146021     2.34136867    -2.37912060
H     -2.00775155     1.95010276    -1.56044110
H     -1.55595696     2.48618988    -2.78556804
O     -2.26641020    -2.26469441     2.30244941
H     -1.93225802    -2.06691204     1.49853495
H     -1.50395125    -2.59157246     2.87390730
O     -0.02285142    -0.06236949     3.68304422
H      0.63768911     0.60268884     3.41141442
H      0.49804564    -0.66600238     4.08989493
O     -0.00747565    -0.02305232    -3.77795847
H      0.61824741    -0.62806912    -3.38907977
H      0.54948280     0.68070599    -4.08885898
18
water clusters train frame=1208
O      2.67737237    -0.06667417     0.18328037
H      2.31919286     0.79508752     0.05459671
H      2.89233556    -0.13645275     1.09601250
O      1.36384114     2.30231866    -0.15863133
H      0.46729915     2.47686451    -0.03168404
H      1.57707545     2.43318504    -0.97226139
O     -1.35237117     2.49495302     0.18039334
H     -1.95911492     1.52175378     0.11565515
H     -1.31318593     2.52222535     1.11892044
O     -2.76938385     0.03034069    -0.09359241
H     -2.22765936    -0.82731490    -0.06207665
H     -2.85857520     0.21007140    -1.07893394
O     -1.32254148    -2.42109977     0.18323025
H     -0.46922854    -2.38667941     0.11415341
H     -1.55568976    -2.46487052     1.11839632
O      1.33587919    -2.34447290    -0.14279595
H      1.88948014    -1.63621732    -0.14429096
H      1.29424896    -2.48586164    -1.07400357
18
water clusters train frame=1209
O      1.54161849    -0.02070219     0.17016574
H      0.83720287     0.43193181     0.03401983
H      1.75110669    -0.10551510     0.90114600
O     -0.90912550     1.31829688     0.06277756
H     -0.77215697     1.30081332     0.98713708
H      0.05771756     1.35653037    -0.17388901
O     -0.71911833    -1.31435798    -0.02558231
H      0.18947323    -0.85357424    -0.00271551
H     -1.00729056    -1.55531468     1.09124344
O      1.54820851    -0.12011801     2.86125948
H      1.69079995     0.05216671     1.80378092
H      2.59884360    -0.01622942     2.90722055
O     -0.79231427     1.30074311     2.78988737
H     -0.75150393     0.51042792     2.83432652
H     -0.77630874     1.58203098     1.70646059
O     -0.73355168    -1.49058465     2.61848166
H     -0.79287171    -1.37646836     1.81142041
H      0.15354328    -1.22830000     2.97291201
18
water clusters train frame=1210
O      0.00457680     0.00575678     0.01874257
H      0.98298607     0.00969126     0.03029515
H     -0.24852099    -0.02465577     0.90283333
O      2.73321489    -0.10147653     0.02918717
H      3.31997042     0.77623232     0.16124287
H      2.55662979    -0.31072269     0.85435439
O      4.20977199     2.39472594     0.44979881
H      3.71307705     3.15364778     0.24476097
H      4.20234973     2.29588657     1.38475766
O      1.33415051     2.27379234     0.37939750
H      0.88876592     1.54775997     0.23044829
H      1.46650944     2.41304653     1.33408906
O      2.70715230     4.67504778     0.03652323
H      1.82073581     4.64064526    -0.01024612
H      2.95924900     4.67667157     0.89587183
O     -0.04208568     4.62238693     0.00899009
H      0.46440595     3.84787200     0.14442487
H     -0.23115757     5.05471233     0.89511953
18
water clusters train frame=1211
O      2.39996062     2.41218546     2.36468541
H      1.64976058     1.76735968     2.79448431
H      3.30071040     2.08028159     2.54014300
O      2.30555068    -2.39007721    -2.34609451
H      1.69058730    -1.72044782    -2.68600062
H      3.12346297    -2.01675721    -2.64296530
O     -2.32673167     2.31956697    -2.26394300
H     -2.06897454     2.01636266    -1.49480621
H     -1.54040890     2.43174690    -2.76901924
O     -2.33063835    -2.27302271     2.41585591
H     -2.02561523    -2.08219477     1.54911074
H     -1.45650631    -2.47302570     2.83791182
O     -0.01238101     0.02035669     3.72194435
H      0.69567550     0.61536831     3.32113518
H      0.47674895    -0.61200565     4.11942519
O      0.00864378     0.01404545    -3.67052360
H      0.56674017    -0.62624960    -3.39441132
H      0.56534889     0.69550204    -4.20963432
18
water clusters train frame=1212
O      2.85733758    -0.04966351     0.29692448
H      2.31892812     0.79245748     0.04625292
H      2.84746111    -0.14544572     1.08575469
O      1.53177308     2.46028716    -0.01122283
H      0.39429571     2.43933534    -0.12174337
H      1.62518069     2.27010587    -1.12545320
O     -1.35541381     2.34318612     0.18130614
H     -1.80498454     1.57567197     0.06418969
H     -1.21886858     2.69630934     1.06456259
O     -2.71771299     0.03811183    -0.31903499
H     -2.41345385    -0.91122779    -0.11741364
H     -2.73300746     0.17699176    -1.10346153
O     -1.48716251    -2.49885311     0.05892116
H     -0.47067027    -2.44746539     0.15614593
H     -1.51605894    -2.44900738     1.12692906
O      1.31518800    -2.39620225    -0.00107803
H      1.92402963    -1.72864823    -0.13499367
H      1.24410535    -2.46560506    -1.10304194
18
water clusters train frame=1213
O      1.57450474     0.00742454     0.01198540
H      0.82182246     0.47236385    -0.02076983
H      1.79348223    -0.03971357     0.93110600
O     -0.79345542     1.40081161     0.00706843
H     -0.81701621     1.40227400     0.90972724
H      0.13353910     1.32220636    -0.24199176
O     -0.73788473    -1.40627817    -0.00883806
H      0.04107380    -0.92600133    -0.03578604
H     -1.00358223    -1.46674957     0.99003167
O      1.58946900    -0.01910181     2.78143193
H      1.60513025     0.01052225     1.74670014
H      2.53306135     0.03798404     2.92799788
O     -0.78148781     1.45256524     2.69860426
H     -0.76141593     0.43562213     2.73046381
H     -0.79018618     1.55444326     1.75653824
O     -0.81542119    -1.36807800     2.72926514
H     -0.74781022    -1.34237769     1.77512667
H      0.14826907    -1.42669642     2.93848196
18
water clusters train frame=1214
O      0.06488090    -0.00667249    -0.02718443
H      1.08214458    -0.17572005     0.00590438
H     -0.21617097    -0.01737329     0.98348355
O      2.79652855     0.05575235    -0.06796051
H      3.26835963     0.86040716     0.08796329
H      2.52234591    -0.38628517     0.91728103
O      4.11407547     2.28049724     0.45256194
H      3.70336227     3.06045998     0.27274271
H      4.22396061     2.21614965     1.47335113
O      1.39805685     2.34747049     0.50065283
H      0.89700065     1.53930647     0.26643712
H      1.36462311     2.53391129     1.45999214
O      2.79492636     4.75469019     0.04949635
H      1.75534433     4.74790013     0.01992196
H      2.81248455     4.76209056     0.81144248
O      0.00944457     4.62945806    -0.02130339
H      0.39313841     3.86235783     0.18780523
H     -0.23245213     4.88942465     0.90680512
18
water clusters train frame=1215
O      2.35471505     2.23326835     2.36132401
H      1.70043726     1.77399328     2.70735094
H      3.23687696     1.90295952     2.56792938
O      2.28311653    -2.34809282    -2.32128293
H      1.74715188    -1.62582055    -2.73702450
H      3.21311894    -1.97774854    -2.57609936
O     -2.31761750     2.17645716    -2.25939800
H     -1.99340071     2.10021003    -1.30016259
H     -1.60867714     2.63808079    -2.70499527
O     -2.29588181    -2.22086806     2.34405006
H     -2.00363808    -2.11321542     1.48093934
H     -1.63094425    -2.64850782     3.05475151
O     -0.08090690    -0.03372254     3.74950902
H      0.56279341     0.69868120     3.33386280
H      0.55640828    -0.58430938     4.07868988
O     -0.16133907    -0.16683058    -3.66479864
H      0.72724065    -0.56154686    -3.41141718
H      0.30461242     0.60984710    -4.28580179
18
water clusters train frame=1216
O      2.73007172    -0.00103693     0.15107255
H      2.30417021     0.76818708     0.15902819
H      2.92249773    -0.13315231     1.06220595
O      1.39862385     2.41551509    -0.16567440
H      0.44138858     2.40202058    -0.09310822
H      1.56056376     2.44521691    -1.15559047
O     -1.35837134     2.34313944     0.17755092
H     -1.83970662     1.53165668     0.13638237
H     -1.29062230     2.56810397     1.07141618
O     -2.69210008    -0.01502713    -0.13492831
H     -2.29151588    -0.85310787    -0.09271860
H     -2.85690085     0.11242440    -1.14396168
O     -1.37189784    -2.42151704     0.06088964
H     -0.39337886    -2.38208201     0.04746119
H     -1.58278502    -2.39301272     1.09906981
O      1.40345646    -2.34361007    -0.18757357
H      1.92343572    -1.58613425    -0.09934359
H      1.22595672    -2.60227504    -1.07557984
18
water clusters train frame=1217
O      1.56169848     0.04431706    -0.07888738
H      0.71415247     0.50371819    -0.02607680
H      1.74587957    -0.08868967     0.84497063
O     -0.81599157     1.45456954     0.01750683
H     -0.85014688     1.42384106     0.91417572
H      0.15692689     1.30494801    -0.41342687
O     -0.81381959    -1.29275097     0.03792052
H      0.07305149    -0.91012102     0.01394135
H     -0.96401388    -1.53221767     0.94900385
O      1.56201772    -0.00812397     2.73943659
H      1.49828427     0.01129748     1.68736114
H      2.50074331    -0.09870611     2.91988365
O     -0.84659359     1.41683755     2.83081723
H     -0.80022752     0.36585730     2.74389461
H     -0.81931207     1.72948855     1.75569462
O     -0.70555451    -1.42275579     2.73410464
H     -0.83290406    -1.34817105     1.84394893
H      0.18490615    -1.27302538     2.88853940
18
water clusters train frame=1218
O      0.06697650    -0.07078389     0.05438992
H      0.87130470    -0.00721664     0.14839890
H     -0.31504176     0.05404262     1.03886856
O      2.79918457    -0.12170167    -0.04637992
H      3.37796942     0.83233376     0.11151662
H      2.52683743    -0.39284262     0.85948283
O      4.13518863     2.38506970     0.40682364
H      3.64007369     3.20283421     0.15679350
H      4.30226386     2.36617867     1.41675013
O      1.33913668     2.32054976     0.42055076
H      0.93554696     1.50993937     0.28034434
H      1.42534244     2.57032441     1.35570492
O      2.85972659     4.66457484     0.00623864
H      1.67428573     4.63284400     0.09387105
H      3.13685884     4.60662651     0.92974848
O      0.01683798     4.84310672     0.06004033
H      0.50309680     3.76213290     0.22232359
H     -0.24790906     4.93300338     0.79596844
18
water clusters train frame=1219
O      2.30188901     2.37762971     2.34689683
H      1.72346110     1.67112268     2.78123335
H      3.18544980     1.99080069     2.53788260
O      2.32986786    -2.36624191    -2.31552827
H      1.70390117    -1.72739410    -2.69367296
H      3.20713520    -1.93440965    -2.54624477
O     -2.34550477     2.32655135    -2.38563595
H     -2.10507277     1.98855505    -1.48960566
H     -1.50199808     2.52538393    -2.79848831
O     -2.42538632    -2.37628638     2.34406181
H     -2.06556475    -1.98047755     1.41612724
H     -1.56767318    -2.50749973     2.86462827
O      0.01095585    -0.00735283     3.76654959
H      0.62270915     0.61631247     3.39866268
H      0.53757316    -0.70023035     4.16325263
O      0.00792198     0.04201874    -3.73180933
H      0.56330162    -0.56556564    -3.44706577
H      0.53781204     0.63826641    -4.21402660
18
water clusters train frame=1220
O      2.80363083    -0.01653746     0.26508687
H      2.24186549     0.85168611    -0.01651382
H      2.86715050    -0.27344510     0.98980850
O      1.34900001     2.30066776    -0.17658547
H      0.43479491     2.33451775     0.01824708
H      1.54884790     2.34878699    -1.08550029
O     -1.46942250     2.29498462     0.08283529
H     -1.83806647     1.53478090     0.05711924
H     -1.32901042     2.59513991     1.05639493
O     -2.74060858     0.00822495    -0.18584799
H     -2.30748035    -0.83561316    -0.13374165
H     -2.88533522     0.16264723    -1.18283563
O     -1.42810716    -2.36274034     0.16888053
H     -0.45494961    -2.45960508     0.03525235
H     -1.55319333    -2.41351766     1.12255743
O      1.35989358    -2.40605132    -0.15583490
H      1.88297196    -1.60407253    -0.16898338
H      1.33241694    -2.47893350    -1.07686129
18
water clusters train frame=1221
O      1.61142184    -0.08426349     0.09914574
H      0.77174241     0.38118185    -0.03296872
H      1.73468024    -0.12835150     0.94640641
O     -0.79152094     1.28614953    -0.12529857
H     -0.78511687     1.35730495     0.93961862
H      0.10098135     1.37940193    -0.23426016
O     -0.82869648    -1.26526033     0.04251934
H      0.03805511    -1.05166432     0.02762826
H     -0.92454648    -1.50926097     0.91958992
O      1.61876317    -0.06891412     2.62051956
H      1.57690438     0.03830210     1.83950475
H      2.47752303     0.12468183     2.91521609
O     -0.63940913     1.35770682     2.68261992
H     -1.00375917     0.46364188     2.63815216
H     -0.79019361     1.72622654     1.82738789
O     -0.80565065    -1.38337144     2.71390466
H     -0.80395311    -1.38783453     1.90327257
H      0.08290246    -1.28475776     2.98121948
18
water clusters train frame=1222
O      0.01952464    -0.02275570     0.03517589
H      0.99886764    -0.07632584    -0.02200450
H     -0.19061871    -0.05480768     0.93732808
O      2.74257797     0.03084842    -0.09874382
H      3.25898501     0.81826430     0.23419897
H      2.51915929    -0.32109808     0.84495313
O      4.11441288     2.32076243     0.40767407
H      3.60735195     3.21454507     0.25841055
H      4.17305769     2.31780453     1.45737599
O      1.36211172     2.33690363     0.41693039
H      0.90334512     1.51848840     0.35381472
H      1.36545302     2.50792777     1.32467251
O      2.75886667     4.68156441     0.00493789
H      1.79141290     4.74347622    -0.03485638
H      3.05526698     4.67850737     0.97549961
O      0.00245551     4.61155929     0.08330584
H      0.45254035     3.90341152     0.16517260
H     -0.23136647     4.98714407     0.83776609
18
water clusters train frame=1223
O      2.28017351     2.34133575     2.38537770
H      1.69668352     1.75371830     2.75279253
H      3.11404265     2.10926563     2.58694818
O      2.40797088    -2.40283388    -2.35074080
H      1.69101123    -1.70660954    -2.77743660
H      3.20335379    -1.91663797    -2.54266686
O     -2.30712664     2.32862654    -2.29903688
H     -2.02901739     2.05720837    -1.56573186
H     -1.60891128     2.62064611    -2.93768624
O     -2.36215367    -2.30131182     2.36409894
H     -2.04113917    -2.01734539     1.49211426
H     -1.55039943    -2.60692104     2.84214744
O     -0.03686181     0.01103042     3.86298226
H      0.67968268     0.67785955     3.38485396
H      0.66193778    -0.67498592     4.19770344
O      0.03017528     0.03273245    -3.68874123
H      0.57898627    -0.61566423    -3.40041286
H      0.50143326     0.69051930    -4.17755712
18
water clusters train frame=1224
O      2.85171920    -0.07309010     0.27826377
H      2.33129385     0.77456389     0.18561162
H      2.77036947    -0.11395844     1.10840724
O      1.28776276     2.42280648    -0.16646898
H      0.52738473     2.31742958    -0.06124498
H      1.62227159     2.43083870    -1.02738660
O     -1.37501154     2.29838054     0.17186458
H     -1.89594461     1.75029793     0.05699265
H     -1.28250740     2.64152267     1.01694204
O     -2.85502291     0.08755968    -0.13841361
H     -2.27872222    -0.87670129    -0.11106622
H     -2.73422853     0.17200338    -1.26391497
O     -1.23168618    -2.21326349     0.23143460
H     -0.35040899    -2.35727153     0.03208087
H     -1.63441114    -2.41211924     1.13256308
O      1.35925772    -2.30179764    -0.25583793
H      1.83329437    -1.62313338    -0.14468730
H      1.25821237    -2.73309972    -1.28597956
18
water clusters train frame=1225
O      1.59084303     0.05046497    -0.02373152
H      0.80184700     0.52944405    -0.02813928
H      1.80020003    -0.16801652     0.93867272
O     -0.75603984     1.36979757     0.04361945
H     -0.83541844     1.42309632     0.94518295
H      0.10862150     1.45332585    -0.23237419
O     -0.82203919    -1.40691846     0.02228531
H      0.05620407    -0.88898690     0.03819014
H     -1.05943892    -1.50079747     0.92584176
O      1.66524319     0.01700894     2.72701996
H      1.62301059    -0.03568407     1.68922829
H      2.44275367     0.02984780     2.92118197
O     -0.83397575     1.44885780     2.68350441
H     -0.87478557     0.47345367     2.64705006
H     -0.77876578     1.60373252     1.82234724
O     -0.80087485    -1.39387104     2.65920771
H     -0.85871079    -1.37993640     1.77375122
H      0.15320270    -1.38517567     2.94251957
18
water clusters train frame=1226
O     -0.04977598    -0.11053815     0.02635636
H      1.00558316    -0.15075918     0.00704839
H     -0.23753490    -0.03181290     0.87518613
O      2.75741971     0.04402650     0.12492955
H      3.30343119     0.73423470     0.20181517
H      2.57449816    -0.32428677     0.90369201
O      4.13132249     2.24864894     0.28114977
H      3.69100920     3.05291470     0.13023282
H      4.15115081     2.31090213     1.35415574
O      1.44317347     2.37354497     0.36447005
H      0.82838777     1.50581984     0.29400712
H      1.44252987     2.42379922     1.39469022
O      2.70100536     4.63338352     0.03236642
H      1.76628981     4.70642108     0.00313455
H      2.98704636     4.65943683     1.02360183
O     -0.07126752     4.66947390     0.07505985
H      0.54543995     3.79778971     0.22142729
H     -0.25350530     5.02283150     0.82508429
18
water clusters train frame=1227
O      2.38234413     2.37242595     2.42495820
H      1.73784711     1.67660859     2.67802746
H      3.33318446     2.01784972     2.56734148
O      2.41083376    -2.35211906    -2.38426202
H      1.79682515    -1.77172734    -2.73758790
H      3.14874737    -1.98853029    -2.61833393
O     -2.46198207     2.27675568    -2.24158105
H     -2.08462298     2.05489198    -1.37362554
H     -1.57196329     2.59946358    -2.71689146
O     -2.42946028    -2.36695631     2.37524483
H     -1.93150521    -1.98541989     1.48429901
H     -1.64958613    -2.62234259     2.90682643
O      0.14781695    -0.01309323     3.68961922
H      0.65510166     0.69684401     3.42571991
H      0.57131533    -0.77604448     4.18691333
O     -0.08540790    -0.10765086    -3.69385385
H      0.61792566    -0.61674878    -3.60302955
H      0.39983196     0.72242820    -4.13235916
18
water clusters train frame=1228
O      2.73010116    -0.07257526     0.13340443
H      2.19963705     0.79536874     0.04713682
H      2.91459222    -0.16237032     1.10353545
O      1.41499919     2.39864824    -0.12691305
H      0.38310048     2.41853739    -0.08625688
H      1.51486299     2.33352708    -1.13520649
O     -1.44462460     2.38936327     0.23577120
H     -1.79821413     1.59867182     0.05011071
H     -1.30990359     2.57801960     1.12647402
O     -2.73916771    -0.01030619    -0.15456942
H     -2.25121736    -0.79945909    -0.07953322
H     -2.90983342     0.11605401    -1.08333191
O     -1.36604278    -2.40733548     0.13322240
H     -0.46134861    -2.37040901     0.08934465
H     -1.56511850    -2.41889497     1.11194484
O      1.39599324    -2.43114061    -0.16442027
H      1.81195077    -1.57225207    -0.10508938
H      1.23896275    -2.52272082    -1.07052607
18
water clusters train frame=1229
O      1.62356846     0.06762279    -0.00042470
H      0.79261894     0.56543487     0.02143334
H      1.76960699    -0.22578663     0.87505774
O     -0.87109714     1.31723208     0.01296597
H     -0.81218154     1.34460323     1.02706605
H      0.17806358     1.40772013    -0.19949396
O     -0.76152974    -1.30810668     0.01060983
H      0.06381599    -0.92849876    -0.10411050
H     -0.94753925    -1.52949829     0.97617870
O      1.59487747    -0.03407903     2.73631655
H      1.69930180     0.03163894     1.72709281
H      2.50713147     0.03077120     2.85531550
O     -0.87179628     1.33346180     2.62690013
H     -0.75029988     0.48702968     2.72537105
H     -0.74473687     1.56882468     1.83241107
O     -0.77528052    -1.44298527     2.64644832
H     -0.77157808    -1.43249535     1.79201145
H      0.10657047    -1.42548450     3.00610917
18
water clusters train frame=1230
O      0.05277604    -0.06967212     0.08077503
H      0.88415786    -0.10675595    -0.10703414
H     -0.22975343     0.16746316     0.96505320
O      2.81578020    -0.01163714    -0.05626773
H      3.30809180     0.73140010    -0.03564499
H      2.55005225    -0.41630457     0.82467622
O      4.13849174     2.25005524     0.43926081
H      3.64394873     3.17451136     0.17889951
H      4.15087418     2.51757151     1.44173880
O      1.41188536     2.53789956     0.42996885
H      0.91724161     1.53675189     0.21226026
H      1.44869149     2.38340923     1.35428590
O      2.75424706     4.63420392    -0.09511491
H      1.79028770     4.66647345    -0.08438380
H      2.97021117     4.61907413     0.94386119
O      0.02448133     4.69543838    -0.14606332
H      0.42503379     3.92155263     0.02013434
H     -0.14555618     4.98330121     0.89509473
18
water clusters train frame=1231
O      2.32317836     2.33479413     2.29178043
H      1.81297153     1.68800972     2.74136034
H      3.24174391     1.95811623     2.53157092
O      2.38909226    -2.33729044    -2.42118017
H      1.74018743    -1.68316931    -2.64777193
H      3.18867521    -1.99623200    -2.58743465
O     -2.36701216     2.28113272    -2.35110261
H     -1.99411044     1.96899842    -1.52343542
H     -1.55983214     2.44123138    -2.83949534
O     -2.38038830    -2.37209913     2.31786954
H     -2.00768493    -2.02083272     1.48277020
H     -1.49116241    -2.54833596     2.85316422
O      0.10266242     0.00248720     3.78603866
H      0.65935652     0.59695664     3.42118171
H      0.58972173    -0.64786259     4.23781499
O      0.00708871    -0.01081881    -3.79159089
H      0.61098342    -0.57973755    -3.42875022
H      0.49716930     0.62888713    -4.17528408
18
water clusters train frame=1232
O      2.71912840     0.00630776     0.09409839
H      2.24095115     0.83617810     0.06136432
H      2.90867487    -0.09176719     1.09596456
O      1.41334949     2.35153722    -0.16366022
H      0.47001147     2.30050937    -0.08773678
H      1.56721994     2.37915715    -1.08988661
O     -1.36886273     2.35029361     0.21430903
H     -1.64918441     1.55370415     0.05584356
H     -1.32382955     2.62412889     1.14740349
O     -2.90041394    -0.02168119    -0.01844149
H     -2.32684811    -0.76216854    -0.09463806
H     -2.95210747     0.19955509    -1.00402787
O     -1.39257957    -2.46874535     0.17055426
H     -0.37742913    -2.43760052    -0.00969330
H     -1.55260843    -2.45720622     1.09379979
O      1.34545360    -2.32450097    -0.10534251
H      1.90613528    -1.59074134    -0.08354021
H      1.34096901    -2.48454636    -1.07134577
18
water clusters train frame=1233
O      1.60348058    -0.09001551    -0.01559662
H      0.91267908     0.40092332     0.07295917
H      1.89849634    -0.02515482     0.89225291
O     -0.70909128     1.42303319     0.04760848
H     -0.73645453     1.40093606     0.85229488
H     -0.03265215     1.44347011    -0.28286493
O     -0.88025415    -1.47287687     0.04953487
H      0.09764412    -0.72037169     0.00718061
H     -0.98185067    -1.49946312     1.01285076
O      1.64557921     0.04911125     2.61914763
H      1.61521386     0.03157913     1.71330940
H      2.61253023    -0.00616854     2.87311245
O     -0.71954091     1.41508002     2.63831048
H     -0.82354940     0.64842939     2.68046602
H     -0.90226275     1.54531612     1.72083319
O     -0.67837711    -1.33686922     2.78749150
H     -0.65892785    -1.32774367     1.83473983
H      0.26125582    -1.35783345     2.98087569
18
water clusters train frame=1234
O      0.02454899     0.05422421    -0.03111797
H      0.90447118    -0.04407673    -0.05813067
H     -0.26311574    -0.01792296     0.92360317
O      2.81018801    -0.05058986     0.07049343
H      3.27862240     0.77501216     0.13624411
H      2.59881158    -0.37039217     0.90882797
O      4.15782212     2.31074499     0.40564001
H      3.70702124     3.12929449     0.27370965
H      4.21374394     2.32080809     1.32442190
O      1.38479098     2.33276132     0.34769780
H      0.88440536     1.48966843     0.32960018
H      1.40414156     2.49212795     1.38003748
O      2.66637918     4.66189816     0.02196919
H      1.80344339     4.67447752    -0.03022534
H      3.03005717     4.70285756     0.92624221
O     -0.05662770     4.67061791     0.02701613
H      0.47761378     3.90258116     0.16122549
H     -0.18384872     4.97627793     0.85195737
18
water clusters train frame=1235
O      2.32758468     2.36264476     2.37544813
H      1.72531268     1.54005182     2.71199049
H      3.30498802     2.14346626     2.50162407
O      2.39808471    -2.35423571    -2.31688152
H      1.64325851    -1.66424948    -2.81740233
H      3.19248909    -1.94777828    -2.62609465
O     -2.33870130     2.33662868    -2.39468627
H     -1.94841079     2.03103672    -1.52284555
H     -1.59686238     2.53392240    -2.78861942
O     -2.35331621    -2.34332778     2.45543457
H     -2.05872223    -2.11416826     1.55350893
H     -1.58158227    -2.59801746     2.82265271
O      0.02098925     0.02278706     3.74099178
H      0.64425292     0.58131214     3.36294738
H      0.53815967    -0.62780203     4.18006616
O      0.01814572    -0.01963386    -3.72626000
H      0.54489694    -0.61386668    -3.34649229
H      0.57240199     0.57577489    -4.06931858
18
water clusters train frame=1236
O      2.69395377     0.02598489     0.03645701
H      2.34853790     0.79808184     0.00296986
H      2.87320748    -0.02147451     1.06495703
O      1.30860897     2.31591417    -0.16521453
H      0.27432563     2.51787426    -0.05288937
H      1.48396266     2.34634485    -1.06034457
O     -1.40910337     2.47009471     0.09024674
H     -1.79863834     1.58474335    -0.01359496
H     -1.23880345     2.53653026     1.08275421
O     -2.83803171    -0.06045771    -0.30371068
H     -2.29663963    -0.84750198    -0.10307024
H     -2.79024587     0.29179566    -1.00262637
O     -1.37011269    -2.34749895     0.14579745
H     -0.53580245    -2.43549420     0.12524629
H     -1.57701729    -2.29295582     1.11884349
O      1.34155054    -2.46878739    -0.10785056
H      2.01223131    -1.57690632    -0.13597077
H      1.40921604    -2.51902632    -1.16791133
18
water clusters train frame=1237
O      1.67196305    -0.01444837     0.00647140
H      0.74695556     0.45209735    -0.04796289
H      1.82989406    -0.13243044     0.87404758
O     -0.78539058     1.43071235    -0.03737528
H     -0.76070706     1.43917184     1.03173619
H      0.06366461     1.41433263    -0.21076610
O     -0.79070277    -1.44500327    -0.03098909
H      0.05085300    -0.90320619     0.05714860
H     -1.01151515    -1.49628269     0.89501698
O      1.62606533    -0.03903516     2.65389050
H      1.59724105     0.01090362     1.79473611
H      2.52622923     0.00543200     2.91886223
O     -0.74076806     1.38266033     2.73192929
H     -0.77943322     0.39917596     2.69268010
H     -0.74093367     1.62709441     1.75682153
O     -0.83802271    -1.41967917     2.62664667
H     -0.86458314    -1.34883789     1.78391305
H      0.12409055    -1.42341362     2.99668518
18
water clusters train frame=1238
O      0.06865450     0.04067639     0.04165617
H      1.02851372     0.00826421     0.00229543
H     -0.28722316    -0.07483528     0.94765842
O      2.87616141    -0.03696594    -0.02984648
H      3.28922251     0.82000896     0.11769091
H      2.50747226    -0.37661836     0.82146365
O      4.22356528     2.33597747     0.39081751
H      3.60041416     3.05343753     0.20388702
H      4.10779023     2.25185739     1.28307091
O      1.39539554     2.44013938     0.41738343
H      0.95162106     1.52307111     0.34320354
H      1.44916531     2.52035024     1.37388485
O      2.78650830     4.80015705     0.00832232
H      1.82019863     4.72255074    -0.03606513
H      3.00390480     4.57636323     0.93308033
O      0.03242026     4.60318232    -0.04461471
H      0.50180923     3.87930478     0.17607924
H     -0.15057291     5.03878889     0.90906807
18
water clusters train frame=1239
O      2.19974966     2.45353750     2.34229254
H      1.73592285     1.86152238     2.62373553
H      3.14523237     2.02571520     2.55901295
O      2.48759879    -2.53082271    -2.30504550
H      1.71991497    -1.66638395    -2.68138169
H      3.21947179    -1.97077166    -2.53740730
O     -2.23034536     2.35365356    -2.32093310
H     -1.92427921     2.11561673    -1.40679910
H     -1.60416327     2.54768120    -2.77539500
O     -2.37806216    -2.39758120     2.32896292
H     -1.98692652    -2.04818144     1.56948462
H     -1.67774987    -2.48315008     2.97241125
O      0.11099194     0.05310702     3.83865152
H      0.61580334     0.57130840     3.34618789
H      0.57158877    -0.60366288     4.19817183
O     -0.09567724     0.06580206    -3.72168004
H      0.58211911    -0.61792519    -3.31618250
H      0.56881248     0.55213963    -4.17943700
18
water clusters train frame=1240
O      2.74455384     0.00400201     0.07099019
H      2.20534602     0.88294791     0.06815148
H      2.83681947    -0.11260986     1.06621938
O      1.43774391     2.42841872    -0.24434181
H      0.50877871     2.41005721    -0.03428637
H      1.60090004     2.38096487    -1.00632947
O     -1.41969309     2.42207136     0.08824263
H     -1.81044258     1.58347834     0.16702869
H     -1.34518398     2.53636290     1.10850614
O     -2.80979508    -0.03904987    -0.15555924
H     -2.27786982    -0.88051074    -0.06836983
H     -2.82703612     0.10307204    -1.03908107
O     -1.35394309    -2.38581691     0.18257443
H     -0.41536220    -2.36856743     0.08051120
H     -1.56416709    -2.41777148     1.08200674
O      1.35435857    -2.40317477    -0.15779175
H      1.90394428    -1.59101571    -0.11316637
H      1.29746214    -2.52558220    -1.01046619
18
water clusters train frame=1241
O      1.55333061    -0.06063931     0.02470955
H      0.80146148     0.40311327     0.02184435
H      1.86076414    -0.05691604     0.93002452
O     -0.73384085     1.40650629    -0.04214803
H     -0.70775592     1.38762348     1.02291458
H      0.17527119     1.49081562    -0.20653402
O     -0.73275364    -1.33705288    -0.03017111
H      0.08177451    -0.80639302    -0.05807975
H     -1.04883287    -1.41021348     0.91557769
O      1.56993658     0.00904239     2.67592060
H      1.47225726    -0.03916645     1.71490522
H      2.41254026     0.03999476     2.92515411
O     -0.86716803     1.33396451     2.73344690
H     -0.87923674     0.36031419     2.83159461
H     -0.76265596     1.68282684     1.85451068
O     -1.00176010    -1.31866962     2.64709848
H     -0.77362494    -1.28938963     1.73311157
H      0.10419956    -1.29035096     3.02162242
18
water clusters train frame=1242
O      0.00154725     0.05643067    -0.08660671
H      0.90146118     0.01689871     0.00794631
H     -0.32508473    -0.02801918     0.94832462
O      2.73120209    -0.06531843     0.00545601
H      3.32840173     0.82220624     0.17299678
H      2.57564961    -0.18334365     0.84963607
O      4.17184190     2.26499621     0.37704391
H      3.61503405     3.19531764     0.17245182
H      4.12268350     2.34849236     1.29598253
O      1.31119433     2.40198282     0.40071241
H      0.89095307     1.49283339     0.28347693
H      1.50821682     2.50671987     1.21083774
O      2.79224611     4.73280721    -0.12435826
H      1.79734691     4.71416138    -0.12978579
H      2.93889486     4.67244974     0.87291648
O      0.07137740     4.72141843     0.13128262
H      0.45301098     3.75902439     0.08865594
H     -0.23246763     5.01049272     0.94892146
18
water clusters train frame=1243
O      2.42848933     2.31044094     2.35515354
H      1.69935204     1.72917894     2.66656295
H      3.23644272     1.98682829     2.48907918
O      2.37774497    -2.31855071    -2.36434554
H      1.75704741    -1.71442938    -2.76176363
H      3.19528234    -1.95037606    -2.60561420
O     -2.37178336     2.33622045    -2.36680555
H     -2.00590214     1.94920548    -1.52087809
H     -1.55129887     2.55915433    -2.75391576
O     -2.36006871    -2.28740517     2.28490038
H     -1.99859521    -2.04098768     1.46753751
H     -1.53822927    -2.53393960     2.90698934
O      0.01229228    -0.04715426     3.71871495
H      0.60957145     0.65544231     3.40095907
H      0.57624911    -0.73654108     4.14907733
O     -0.02934741     0.02386726    -3.83814761
H      0.52038545    -0.61417698    -3.42429433
H      0.52523563     0.65735222    -4.10230660
18
water clusters train frame=1244
O      2.86125626     0.02224731     0.11119388
H      2.28080417     0.82019266     0.11473582
H      2.77174589    -0.05760160     1.06927408
O      1.47759479     2.29440654    -0.18916884
H      0.37990835     2.46291874    -0.09823411
H      1.59851997     2.37188224    -1.01368584
O     -1.29403497     2.43428509     0.27968337
H     -1.80579091     1.56501486     0.07591659
H     -1.33192968     2.51531031     1.12870200
O     -2.81318535     0.06814843    -0.21093692
H     -2.19549983    -0.81646278     0.00303304
H     -2.84617050     0.15394671    -1.01780173
O     -1.39666680    -2.33626861     0.27171464
H     -0.37188876    -2.23644074     0.19403859
H     -1.59670717    -2.29597783     1.07415925
O      1.31211271    -2.33649288    -0.18742266
H      1.77155028    -1.62289150    -0.15514196
H      1.35312748    -2.46534491    -1.01450616
18
water clusters train frame=1245
O      1.41526164     0.00232033     0.01594493
H      0.82305943     0.47648682    -0.00660539
H      1.88449491    -0.11544787     0.95862345
O     -0.75809033     1.43494527    -0.03860415
H     -0.92216044     1.45674743     0.95554583
H      0.16047383     1.54737158    -0.17905412
O     -0.86935068    -1.30974499     0.07688293
H      0.02025058    -0.95385805     0.01130332
H     -0.90970171    -1.48329943     0.99129436
O      1.50260545     0.04853113     2.67390808
H      1.58963490     0.22477763     1.65388900
H      2.51319026     0.07278609     2.90862014
O     -0.75095064     1.36317817     2.77491765
H     -0.83376765     0.33952689     2.86470337
H     -0.80683812     1.58987535     1.71365962
O     -0.89688342    -1.38185275     2.61347708
H     -0.77089646    -1.37184502     1.76856698
H      0.11153271    -1.40557595     2.85108410
18
water clusters train frame=1246
O      0.02882678    -0.01141441     0.07457733
H      0.97692772    -0.00976627     0.04984338
H     -0.22110725     0.04235083     0.86716142
O      2.70912106    -0.00510557     0.08099033
H      3.22790961     0.87074754     0.00568525
H      2.58320507    -0.32288131     0.86305705
O      4.09484366     2.32018439     0.36388912
H      3.57683451     3.11899105     0.17793151
H      4.18010835     2.26357334     1.42972572
O      1.42015878     2.36854215     0.35194555
H      0.89763675     1.42176122     0.25142440
H      1.41190406     2.43860578     1.37616779
O      2.75245827     4.59155092     0.04335211
H      1.80789894     4.68025321     0.06869464
H      3.02268332     4.70525253     0.93049695
O      0.04321497     4.69049078     0.05322578
H      0.48697541     3.89834374     0.14631948
H     -0.14015681     5.02949414     0.85644908
18
water clusters train frame=1247
O      2.31502113     2.35615609     2.27731100
H      1.79307367     1.69975016     2.77307185
H      3.17191960     1.93427432     2.61891563
O      2.41397784    -2.29456949    -2.32923296
H      1.66392361    -1.66577901    -2.62707884
H      3.21704626    -1.98803516    -2.47730896
O     -2.35830606     2.41683855    -2.30263061
H     -1.91554853     1.95296039    -1.49493384
H     -1.58045082     2.57601732    -2.82898813
O     -2.37336309    -2.37137707     2.31386766
H     -2.02415074    -1.95463787     1.48606448
H     -1.62885198    -2.58855860     2.82746704
O      0.02814760    -0.08863118     3.73047398
H      0.75047363     0.68944486     3.37982420
H      0.51516746    -0.58076873     4.14181984
O      0.01521444     0.09410582    -3.76951379
H      0.70037019    -0.65502495    -3.36862738
H      0.46821778     0.60510924    -4.08385616
18
water clusters train frame=1248
O      2.71472988    -0.03243695     0.29950825
H      2.34039452     0.84983199     0.00287709
H      2.88664897    -0.12470364     1.05399553
O      1.44020082     2.42816117    -0.19793487
H      0.49053465     2.50947511    -0.17288032
H      1.66051466     2.36101069    -1.03445225
O     -1.26911416     2.43999185     0.02062656
H     -1.86274018     1.59712951     0.09832934
H     -1.33589822     2.69506238     1.21703791
O     -2.75339011    -0.00003947    -0.12906548
H     -2.19628663    -0.88493254    -0.14571524
H     -2.75506420     0.20540079    -1.06974303
O     -1.22732842    -2.35360099     0.12524532
H     -0.44099601    -2.29507553     0.15922798
H     -1.74254474    -2.41404398     1.17923627
O      1.51210770    -2.48744330    -0.15043678
H      1.85100324    -1.63774262    -0.04271731
H      1.14099020    -2.55372186    -1.06599963
18
water clusters train frame=1249
O      1.65271029     0.01063326    -0.00045481
H      0.84177298     0.57345173     0.01606089
H      1.82495566    -0.12823525     0.98590377
O     -0.75484180     1.45696985    -0.01575278
H     -0.82699556     1.39956820     0.97773003
H      0.13539355     1.42125544    -0.24997609
O     -0.79635514    -1.39353533     0.05818016
H      0.01598457    -0.95131535     0.04992068
H     -0.93068948    -1.48618127     0.89340064
O      1.65548839    -0.02257970     2.67729775
H      1.56704370    -0.04771489     1.78012805
H      2.44783977     0.09381761     2.86103766
O     -0.77406026     1.30923859     2.69958491
H     -0.81571123     0.37404609     2.65693632
H     -0.80919190     1.66153845     1.78986137
O     -0.80533576    -1.36445022     2.76882873
H     -0.82102796    -1.30068779     1.75306615
H      0.14694437    -1.39281530     2.91235022
